19

C -0.5226974 -0.78305525 -0.39058328
C -0.7369513 0.91525406 -1.0750805
O -0.9287108 -0.7183171 1.9848756
C 0.06570102 -0.66342527 0.985246
C 1.0121328 -1.8781714 1.1008229
C 0.30503485 -0.12868673 -1.4323417
C -0.28348044 2.2276366 -0.5093137
H 0.6711398 0.23075517 1.2056859
H -1.4777626 1.027945 -1.8788114
H 1.3883562 -1.9581404 2.120535
H 1.8594515 -1.7962914 0.40335584
H 1.3134689 0.18726107 -1.1636369
H -1.5889902 -1.3331347 1.6438825
H 0.27351052 2.7887099 -1.2778523
H 0.4835737 -2.8102612 0.8446747
H -1.4120866 0.3274177 -0.2991546
H 0.42006016 2.0820115 0.33541656
H -1.0979766 2.8334317 -0.15893169
H 0.25622636 -0.5509388 -2.4387894
