19

C -1.4491602 0.19805552 0.4736592
C 0.89331055 -0.13513026 -0.93826574
C -1.6140654 1.6781965 0.89896214
C -0.16073257 -1.232571 -1.0687472
C 1.8105181 -0.21929865 0.25336528
C -0.97145504 0.0069813677 -0.9456763
O 2.7220142 -1.2948178 0.16329207
H 0.14820766 0.82524794 -0.9896474
H -2.4592657 -0.22815648 0.43742666
H -0.17712124 -1.7603667 -2.031234
H 2.2148144 -2.1148376 0.10499809
H 2.4264288 0.67665887 0.3043334
H -0.6443349 2.15655 1.004031
H -2.1211054 1.7502906 1.852508
H 1.4227298 0.031838086 -1.873286
H -0.917022 -0.35793227 1.2579684
H 1.2369387 -0.25757483 1.1942189
H -2.1814203 2.2167425 0.13473825
H -0.17927985 -1.939877 -0.23264454
