19

C 0.051003255 -2.5595026 -1.3258196
O 0.6092791 -1.4730018 -0.70354426
C 1.2325991 1.3598608 -0.26294342
C 0.34843045 0.24049793 1.0258765
C -0.7181409 1.1141936 1.6459619
C -0.38798168 1.8322703 0.41012663
C -0.2847272 -0.8525628 0.2284276
H -0.4678257 1.6134851 2.5681434
H -0.87017196 -2.3038137 -1.8873614
H -1.7345427 0.6918311 1.6483338
H 1.5847307 0.4127705 -0.6770017
H 1.0394198 1.9934564 -1.1509972
H -0.20651534 -3.367582 -0.631913
H 2.0151477 1.8118169 0.33355433
H -1.2218511 -0.57882416 -0.30908176
H -0.60094416 -1.5899866 0.9843718
H -0.07506534 2.8558404 0.55706716
H -1.1014223 1.7260029 -0.41038853
H 0.78857857 -2.9267523 -2.0428126
