15

C 0.51454407 1.0329298 0.008882877
C -0.44977528 -1.2472003 0.9813255
O 2.0735545 0.434365 -1.7136782
C 1.708317 0.2357511 -0.5939361
O -1.5602306 0.17342582 -1.1699004
C -0.53720117 0.16302519 0.5310072
O 0.11761558 2.0743513 -0.5828151
H -1.0862001 -0.4481862 -1.7757988
H -1.0919043 1.0574735 -1.2629715
H -1.4279764 -1.7153519 0.8894021
H 0.28400397 -1.8133538 0.41916838
H -1.3351479 0.7693802 0.98658395
H 2.1739697 -0.53720975 0.05519626
H -0.18484662 -1.2907106 2.0542262
H 0.8012787 1.1113108 1.1733079
