19

C -0.5832465 0.14536913 -0.46340376
O -1.3534102 -0.8355637 0.23165448
C 0.32415497 -0.4731434 -1.518933
C -2.2810445 -0.24033363 1.1109328
C 0.4533192 0.8352782 0.42081237
C 1.1728656 -0.10624307 1.3330681
C 1.4740345 0.5083554 -1.4383088
H -2.9766092 0.41570908 0.58322936
H -2.8433962 -1.0526192 1.567942
H 2.1548436 0.2683866 1.6482475
H 0.63399583 -1.4691865 -1.1630756
H 0.5443116 -0.12587039 2.2394996
H 1.4307737 1.2756726 -2.2223942
H 1.2560952 -1.1584148 1.0089761
H -1.2698532 0.88282967 -0.8980973
H 2.4702566 0.09759562 -1.3634137
H 1.3154743 1.2852949 -0.48403656
H -1.7957824 0.32326987 1.9004692
H -0.12678301 -0.5763866 -2.4931686
