15

C 0.25717404 0.069885984 -0.70917165
C 1.6677781 -0.033324905 -1.2571864
O -1.896003 0.8644027 1.4022372
C -2.1125607 -0.42966408 1.3846098
O -0.04133503 1.4494852 -0.60131925
C 0.16891137 -0.63397455 0.64594597
O -1.1398263 -1.1871748 0.95132095
H -0.45968756 -0.42748305 -1.3848586
H 2.3837035 0.3763278 -0.5275088
H -2.9756873 0.40557694 1.7061579
H -0.8042593 1.5551697 -0.036814556
H 1.7404172 0.55690455 -2.1874888
H 0.50463784 0.028831309 1.4516994
H 1.9281414 -1.0614494 -1.4928298
H 0.778596 -1.5335133 0.6552067
