15

C -0.535136 -0.3756367 1.9491372
C 0.220514 -0.010830684 0.7092787
C 0.23241699 -1.0709918 -1.5242789
N -0.05018116 1.1900878 0.12385413
C 0.41071606 1.4561551 -1.0717956
O 1.1005515 0.5467813 -1.6246561
H -0.12315823 0.07614724 2.866249
H 0.51874363 -1.0875181 -2.5707495
H 0.68567723 -1.8837543 -0.97381157
H -0.5047386 -1.4762337 2.104672
H -0.8471626 -1.0495787 -1.4135092
H 1.2466259 -0.31026787 0.6188089
H -0.0024637913 2.3002365 -1.6096056
H -0.75715065 1.7792886 0.54231983
H -1.5952543 -0.08388491 1.8740864
