15

C -0.2989322 0.56818455 0.071138956
C -0.1901736 -0.41251764 1.149539
C -1.6933547 0.9028255 -0.42225042
N 0.44789726 -0.28438327 -0.80223584
C 1.8686862 -0.584922 -0.2739466
O 2.5900073 0.42904836 -0.12606183
H 1.504583 -1.103226 0.7553546
H -1.631756 1.4725567 -1.345901
H 0.30222812 1.4590237 0.26482925
H -2.279479 -0.01339473 -0.6068988
H 2.180856 -1.467627 -0.86067426
H 0.31794256 -0.20111844 2.0804198
H -2.2361186 1.5006559 0.30327994
H -0.82508206 -1.2761847 1.119285
H -0.057304807 -0.988921 -1.3058776
