15

C -0.16633695 0.6682769 1.3581028
C -1.6860578 -0.737639 -1.2048411
C 1.7209954 -0.15392457 -0.12944578
N -0.55979395 -0.89499104 -0.52174836
C 0.25195718 0.23222502 -0.04799899
O -2.1423757 0.49859086 -1.360829
H 0.4253038 1.538077 1.6747305
H -1.2089536 0.9571303 1.3514477
H 0.0379724 1.0582699 -0.74275255
H -0.30291972 -1.8151978 -0.2277629
H 0.0042483895 -0.14360282 2.0793636
H 1.951679 -0.9782894 0.5344235
H -2.6988385 -0.493034 -1.8017992
H 2.3589787 0.6940552 0.18896174
H 2.014141 -0.4299463 -1.1498518
