15

C -0.76823676 -0.15039507 -0.15784314
C 1.387711 -0.48089132 -0.984766
N 0.1893577 -0.99505687 -0.5408093
C 1.1646273 1.4563161 0.52309257
O -0.5059553 1.0796732 -0.3148984
C -2.031173 -0.62963885 0.4994191
H 1.5756955 0.75955975 1.2376605
H -2.892144 -0.28294998 -0.075544596
H -2.1034634 -0.22470614 1.5091903
H 1.8995403 1.8571364 -0.1560848
H -2.0725129 -1.722142 0.5551278
H 1.2753323 0.2636685 -1.7352695
H 0.58355546 2.2398627 1.00493
H 2.1617424 -1.2178999 -1.1075077
H 0.1359235 -1.9525368 -0.25669685
