15

C 1.6723559 -1.1143299 0.88816315
C -1.583096 -0.41562152 -0.61451924
C -0.33447182 0.088853434 0.10322217
N 0.7520595 -0.885014 -0.037713014
C 0.11087292 1.45519 -0.40810215
O 1.6019738 -0.45681587 2.0350661
H -1.912527 -1.3840177 -0.22309113
H 2.470755 -1.2609674 1.821058
H -2.4132001 0.29003125 -0.48297057
H -1.4024017 -0.5229339 -1.6955428
H 0.8355068 -1.3686105 -0.9030909
H 0.35958862 1.4136702 -1.4918668
H -0.5046328 0.17276317 1.169944
H -0.6717121 2.199767 -0.27547914
H 1.0189288 1.7880355 0.11492196
