19

C 1.4382207 -0.21287268 1.0757359
C -0.034948505 -0.30612215 -2.3825412
C -1.0104249 0.58926046 1.246073
C 0.3479718 -1.0144528 0.6025596
C -0.8119255 -0.245876 0.030835923
C -0.5165629 0.57508427 -1.2387177
O 0.8232059 0.7631773 2.130394
H -1.6477704 -0.9280948 -0.12361256
H -1.4402893 1.1319251 -1.5162425
H 0.6992313 0.24984644 2.939299
H -0.7894271 -1.0532935 -2.665392
H 1.8466641 0.5323578 0.37976697
H 0.25683513 1.3207613 -1.012108
H -0.96979344 1.6812395 1.2061212
H 0.18166013 0.29579887 -3.2847822
H 0.8664593 -0.83573794 -2.0830767
H 0.13061956 -1.9513088 1.1003282
H -1.6254755 0.17756017 2.0523906
H 2.255749 -0.769252 1.5429686
