19

C 2.651578 -0.75916106 0.81202334
C 0.15239656 -0.38967788 0.46940002
C -1.8624041 1.7375242 -0.48474923
C -1.1017822 -0.5076695 -1.4526874
C -2.0996757 0.35179904 -0.5720449
C 1.424972 0.08561893 1.1044208
O 0.16359241 -0.28344145 -0.86104983
H -3.1359458 0.057605464 -0.7250956
H 2.4781234 -1.7864214 1.1919683
H -1.0355346 -0.17566684 -2.4931529
H -1.7396488 -0.02060049 0.42417708
H 2.8245816 -0.82700825 -0.2761347
H 3.5368757 -0.3687272 1.2914602
H -0.8502982 2.1188176 -0.60300684
H -2.6401377 2.4547367 -0.24752825
H -0.18618385 -1.3662533 0.84071594
H 1.5971597 1.1177087 0.7705944
H -1.413583 -1.5691687 -1.3699826
H 1.235915 0.12998523 2.1806724
