15

C 2.3061717 -0.48535654 -0.62138414
O 0.48067653 1.3985739 -0.97190654
C -1.238804 0.38334727 0.15644544
O -1.8103982 1.4907912 -0.17327845
C 0.1556048 0.36429754 -0.2697085
C -1.7286407 -0.51957256 1.2623497
O 1.0407091 -0.5440847 0.04278868
H 2.8569489 -1.3518885 -0.26449534
H -1.5866091 0.008486265 2.2121408
H 2.8379302 0.44117445 -0.40076733
H -1.1944005 -1.4614567 1.3069247
H -1.0451188 -0.38522846 -0.88785815
H -0.45029455 1.9196411 -0.8122575
H 2.1732652 -0.5569999 -1.7106329
H -2.7970412 -0.70172435 1.1316397
