15

C -0.73531336 1.8205805 0.39061978
O 2.1974912 -1.7340397 -0.7477947
C 1.292222 -1.1115693 0.02553147
O -0.11398238 0.5568159 0.65795845
C 0.920046 0.1640222 -0.3152241
C -1.2502155 -0.9865655 0.24894905
O 1.1527615 0.8034364 -1.3285726
H -1.7318968 1.8091682 0.82320905
H -2.0312293 -0.45946342 0.80727845
H -0.7942761 1.9863652 -0.682771
H -0.15762135 2.6406221 0.8159369
H 1.2780768 -1.452275 1.0585467
H 2.3090148 -1.1751027 -1.5482104
H -1.3338709 -0.9006594 -0.8340667
H -1.0012071 -1.9613358 0.6286099
