19

C -0.28574157 -0.7067046 -0.8654028
C 0.5077031 -1.5216255 -1.754827
O -0.13458247 -1.2709408 0.34466454
C -1.8308377 0.07888948 1.6203247
C -0.42486235 0.44851336 1.2394307
C 1.7746071 0.8237766 -0.42462397
C 0.32610926 0.62359524 -0.7479059
H 1.8888121 1.7124717 0.22073427
H 1.5435878 -1.6757615 -1.4937252
H 0.13174002 -2.0319364 -2.6423743
H -2.5189636 0.2516839 0.7577606
H 0.32076702 0.16967978 1.9910488
H -0.3660649 1.5491375 1.1072353
H 2.16955 -0.030647356 0.12178314
H -0.11694743 1.4641058 -1.3175136
H -1.8995289 -0.98078734 1.907344
H 2.3966932 1.0019668 -1.3064097
H -1.3153213 -0.59095186 -1.2246376
H -2.166719 0.6855351 2.4670942
