15

C 0.5269022 0.7516116 0.41922423
C 0.6419053 -0.7144189 0.030101212
O 0.23882093 0.86245036 1.784731
C -0.5327234 1.5022234 -0.3873815
O -1.3398798 2.2040436 0.17734785
C 0.3497713 -1.2230722 -1.2987872
O -0.8148174 -1.3969387 0.76459444
H 0.054426447 -0.49528572 -2.0522006
H 1.3628092 -1.2305807 0.63654274
H -0.81443214 -1.6092173 -0.30814394
H -1.1449921 -0.80673105 1.3799921
H -0.41878644 1.5845379 1.8386291
H 0.8935047 -2.0596566 -1.6569935
H -0.49923357 1.4267144 -1.4862405
H 1.4967248 1.2043202 0.1585845
