19

C 0.01934817 1.5526948 -0.2969625
C -0.70757514 -0.8854706 -0.5591085
C -0.5568562 0.29148903 0.3493937
C -0.04103571 2.7847586 0.6211703
C 1.1565651 -1.8995734 -0.8071616
O 0.28782046 -2.9579208 -0.53970194
C -0.72780687 -2.2268145 0.14801642
H -1.599593 0.4929493 0.65600425
H 0.39370373 -1.049799 -1.3171299
H -1.6774462 -2.7523868 0.058967624
H 1.8020742 -2.0938747 -1.6611075
H 0.40650833 3.6624897 0.15330352
H 1.7187673 -1.5365591 0.062860824
H 0.51204574 2.5841029 1.5527192
H 1.0607672 1.3628561 -0.5943367
H 0.0020572348 0.08084296 1.283209
H -1.0649604 3.001588 0.8995891
H -0.5147326 1.7649568 -1.2236036
H -0.4696513 -2.1763291 1.2138782
