19

C 0.97095925 1.4134748 0.16361366
C -0.6251503 -0.6313554 -0.6909293
O -0.89729077 -1.9540318 -0.25215772
C 0.9515031 0.22734846 1.1241027
C -0.7650135 -0.4812415 -2.2034724
C -0.14963527 0.19515057 2.1667812
C 0.8061747 -0.37491316 -0.24083729
H -0.29931787 -0.8307931 2.5283785
H -1.1155062 0.54008275 1.7892919
H -0.70194936 0.5664164 -2.5049074
H 1.8932662 1.9792728 0.17376159
H -0.11318974 -2.4597669 -0.47646138
H -1.7534026 -0.86785346 -2.520925
H 1.103076 0.87444204 -0.88714206
H 0.054438688 2.0091865 0.16750646
H 1.9186913 0.04377437 1.5653121
H -1.4105562 -0.026564967 -0.20559815
H 0.01753217 -1.0439284 -2.720391
H 0.11537078 0.82129925 3.0240736
