19

C -1.2916311 -0.63538367 -1.1196351
C -0.7351425 0.41443434 -0.03879147
C 0.4606765 1.2105528 -0.49690184
C -0.58308846 -0.85246104 0.66568756
C 0.5519363 -1.8230858 0.5686915
C 1.1434437 1.927092 0.66203433
O 0.06389043 -2.9321647 0.01693021
H -1.0367929 -1.7370108 -0.8407785
H -1.4516768 -1.2130873 1.1835439
H -1.5429903 1.0588127 0.32481074
H 1.4169382 -1.3475585 0.06608799
H 1.1918792 0.52714586 -0.97580665
H 1.5189823 1.2354686 1.4233634
H 0.44982326 2.61511 1.1363786
H -0.7564278 -0.45597523 -2.0521677
H 0.8494758 -1.8921591 1.6406
H 1.994542 2.5367079 0.30597007
H 0.1334682 1.9098153 -1.2549738
H -2.3773057 -0.54625374 -1.2150434
