19

C 0.37824753 0.087726474 -0.5980552
C 2.0631204 0.4401698 -0.767175
O -0.2161182 0.74486345 -1.6819848
C -1.8170035 0.20418641 1.3155768
C -1.9594226 -1.0052345 0.75317615
C 0.42232952 0.7644502 0.6388203
C 0.1977228 -1.2878045 -0.607924
H -2.4427168 -1.1095015 -0.1997741
H -2.2059088 1.1103895 0.82626706
H -1.7229592 -1.9124444 1.3052875
H -0.21594252 -1.7611581 -1.5057318
H -1.5492907 0.3302915 2.3454316
H 0.858415 0.26059493 1.4952353
H 2.667073 -0.11663134 -0.054420467
H 2.270618 0.07900989 -1.7773694
H -0.18079218 1.691406 -1.5183383
H 0.75982714 -1.8951008 0.06815987
H 2.2949884 1.5154724 -0.72685236
H 0.39781284 1.8593138 0.6896711
