15

O 1.628531 1.419671 0.87276584
C -0.7613401 -0.4192091 -1.2146764
C -0.010713285 -0.6513967 1.2434002
C 1.3634695 0.81883 -0.27418774
O -1.9263362 -1.0899534 -0.82172936
C 0.1961412 -0.13823807 -0.12310025
O -0.627171 0.6400564 1.3581889
H 0.8849971 -0.7483743 1.8407514
H 0.22225425 1.2459046 1.385919
H 1.2411786 1.4065058 -1.1866988
H -0.23334011 -1.0756063 -1.9084628
H -2.3784978 -0.48753482 -0.20542943
H -0.9669359 0.5127976 -1.7563425
H -0.74997354 -1.4340597 1.381212
H 2.1177366 0.0006068851 -0.5916098
