15

C -1.4979347 0.2966363 -1.8694159
O 0.9184961 -1.7730219 1.1593482
C -0.7267227 -0.23413832 0.4596763
O -1.8318012 -0.49342856 0.7641077
C 0.6589658 -0.51128983 0.6104797
C 1.5768223 0.6022648 1.0988191
O -0.53408056 0.6492448 -0.9144096
H 2.6133976 0.29955837 0.9165818
H -1.4524622 1.0280687 -2.6727443
H 1.3933843 1.5472966 0.576529
H 1.4735681 0.7662565 2.1696084
H -2.4714289 0.33860242 -1.3784629
H 0.79465246 -1.7479373 2.1011477
H -1.3237642 -0.7197991 -2.2830634
H 0.40890753 -0.04831349 -0.73820204
