15

C 0.7262103 -0.12217131 -0.56977654
C -1.5961794 -0.10351211 1.7818369
O 1.748148 -1.3341687 -2.3659341
C 1.0573024 -0.169853 -2.053638
O 0.043578252 1.011813 -0.21713807
C -0.041707426 1.2750366 1.1905942
O 1.003123 -1.0152959 0.19868764
H -0.31487024 0.31194595 1.8221557
H -2.1535728 0.055145312 0.87015456
H 0.12476579 -0.10365871 -2.6315222
H -2.0313303 0.3355687 2.6425283
H 1.8890165 -1.7854053 -1.5114949
H -0.8287307 2.0632324 1.2412245
H -1.2912266 -1.1424811 1.8995144
H 1.6654733 0.7238039 -2.297192
