15

O -0.23478568 -2.0586007 -2.083412
C -0.7037891 0.68114513 0.5528353
C -0.5573508 -1.5768299 -0.5785987
C 0.5047487 1.3996335 1.0880666
O 0.18855804 0.35601658 -1.6263375
C -0.36529478 -0.16507718 -0.6310612
O 1.395527 0.41941744 1.5940083
H -1.1471573 0.066206574 1.349711
H 0.9950259 1.9912264 0.2893352
H 2.223787 0.8432513 1.849369
H -1.5158937 -2.0297682 -0.2857935
H -1.4497501 1.4260811 0.24594405
H 0.3941017 -2.3109748 -1.2622102
H 0.056168642 -1.1443423 -2.3967595
H 0.21610445 2.1026149 1.8949031
