19

C 1.8442903 0.9733176 -0.17872408
C -0.06309426 -0.7212446 0.7339579
C 0.88611984 1.2317467 0.94663435
C -2.2283642 -1.4061841 -0.11616501
C -1.3718086 -0.17829257 0.15887763
C 1.3038813 -0.1531919 -1.0824215
O 0.80191183 -1.1496524 -0.19556417
H 2.8071053 0.65740484 0.20786574
H 0.4780634 0.079045095 1.5285388
H 1.3887653 1.5744482 1.8728896
H -1.7763792 -2.0471597 -0.86122084
H 2.0249984 1.8835447 -0.754827
H -1.8542495 0.45255798 0.89755875
H 2.0850744 -0.6198772 -1.6953212
H -3.2314575 -1.1238093 -0.4670997
H 0.50176746 0.22060512 -1.7526938
H -1.2873514 0.42386228 -0.76608276
H 0.05140522 1.9023738 0.7057308
H -2.3606784 -1.9994946 0.81806624
