15

C -0.138566 -0.74849254 0.1550995
C -1.1558732 1.3868123 -0.6138193
O -1.2799819 1.1794826 0.7306523
C -0.15939447 0.4102466 1.1433074
O -0.123617776 1.9655075 -1.1256726
C 1.2440015 -1.3561623 -0.060842995
O -0.63375664 -0.1681464 -1.0836749
H 1.6272379 -1.7757359 0.8711518
H -0.32372108 0.11289546 2.1714249
H -2.150906 1.4966309 -1.0666553
H 0.748061 1.0341669 1.0589273
H 1.2058108 -2.1506073 -0.80436873
H 0.06368868 0.72065276 -1.4336876
H 1.9445121 -0.59321713 -0.3986978
H -0.86749476 -1.5140342 0.45685628
