19

C 0.054182544 -0.6131261 0.94143474
C -0.4111465 -1.8709185 0.23974398
C 1.3117875 -1.2972848 1.5101651
C -0.940449 1.0057056 -0.7353904
C 0.33354974 0.534375 -0.036656428
O 0.98221356 -2.677954 1.1895535
C -0.69781697 2.112239 -1.7515863
H -0.2471393 2.9936707 -1.2774466
H -1.6366723 2.4340496 -2.2299564
H -1.6577178 1.3345004 0.010783897
H 2.2371976 -0.98382896 1.0363932
H -1.4085659 0.14466012 -1.2356381
H 0.7926053 1.3799751 0.4897728
H 0.72349054 -2.659064 0.16328959
H 1.4245491 -1.2320317 2.5877995
H -0.017145129 1.8007951 -2.5321722
H -1.2951447 -2.3402278 0.6812965
H 1.0578582 0.20463754 -0.80073583
H -0.60563606 -0.2701727 1.749349
