15

C -1.4848922 0.18468116 0.7946151
C -0.39038748 0.017380299 -0.25161436
C 0.16567938 1.3362824 -0.7705162
N 0.7055633 -0.7682679 0.31887245
C 1.8601184 -1.169514 -0.49350047
O 1.0328683 -2.2504156 -0.34119526
H -2.3226922 0.7481509 0.37457597
H -1.1121085 0.7394031 1.6643039
H -1.8674898 -0.78507984 1.1328624
H -0.7711066 -0.5758165 -1.0915651
H 1.0401403 1.1346754 -1.3963846
H 0.4590512 1.991563 0.05723265
H -0.5914823 1.8520427 -1.3682966
H 0.5189645 -1.2073226 1.220075
H 2.7577739 -1.2477623 0.15053529
