15

C 0.11088359 -0.53999215 1.4971191
C -0.15197958 -1.5855349 -0.35929587
O -0.8073256 -0.7625275 -1.1214877
C 0.0095591 0.41017118 -1.4273959
O 1.1089857 0.26944992 -1.9326359
C -0.51604974 1.4038786 -0.6003756
O 0.17146912 2.5874193 -0.46663263
H 0.6365974 0.26874936 2.0288856
H -0.8472424 -0.70458096 1.995433
H 0.75627476 -1.4107693 1.654757
H -0.739568 -2.4023402 0.05013352
H 0.9051363 -1.7366924 -0.56458277
H -1.5809525 1.4833903 -0.41525152
H -0.09375489 0.27044585 0.54018664
H 1.0379667 2.4489331 -0.8788568
