19

C -1.4895654 -1.1149987 -1.5464554
C -0.15442583 -0.41290465 -1.3232602
C 0.42969888 -0.7111069 0.05783877
C 1.670311 0.005417455 0.38959432
C -0.35790402 -0.21139406 1.2595098
C -0.38362485 1.2197202 1.378846
O 1.1047876 1.6565994 1.2685257
H -1.3659883 -2.2045996 -1.5332808
H -1.9330503 -0.83919203 -2.508956
H -2.1858037 -0.84831226 -0.74574864
H -0.2861715 0.6736332 -1.4299675
H 0.56825423 -0.71031535 -2.0960107
H 0.58683044 -1.7902583 0.17925712
H 2.2896247 -0.39966705 1.1811084
H 2.196887 0.64254284 -0.3232411
H -0.26479268 -0.7856103 2.1786406
H -0.85072 1.7724037 0.5475724
H -0.7705439 1.5846002 2.3324566
H 1.1961961 2.4734423 0.73356986
