19

C -0.59781915 2.351492 0.30785376
O -0.72356045 1.0042156 -0.06214219
C 0.52913576 0.3753711 -0.33623436
C 1.1868249 -0.09227681 0.96516883
C 0.48234272 -1.4381912 1.0516583
C 0.3660423 -0.97193474 -1.0083189
C -1.0064608 -1.293958 -1.51571
H -0.08606313 2.9377537 -0.47242334
H -0.042625923 2.4810731 1.2505124
H -1.6078085 2.7475693 0.4423027
H 1.1307569 1.0657858 -0.95117056
H 2.2632895 -0.22914621 0.8255575
H 1.0240716 0.56855047 1.8219587
H -0.57662684 -1.3672338 1.2947332
H 0.96924365 -2.2421062 1.61279
H 0.7363947 -1.8443396 -0.10863446
H -1.1161054 -2.354982 -1.7611489
H -1.8465135 -0.9581097 -0.8936293
H -1.0845182 -0.73953354 -2.4631228
