15

C 1.6357727 1.0912708 0.58780944
O 0.8150794 0.29972538 -0.2600766
C -0.65948725 0.57724845 -0.14281556
O -1.062 1.2264321 0.81374514
C -1.2784778 -0.11011782 -1.1558025
C 0.33840442 -1.4955853 0.29042304
O -2.6464586 -0.21066238 -1.1972647
H 1.7136519 2.096796 0.16074528
H 2.6247826 0.62627554 0.6002116
H 1.2169194 1.1611671 1.5947781
H -0.7640329 -0.44004294 -2.0472271
H 1.4048611 -1.6745918 0.40328893
H -0.15525562 -2.1715982 -0.39469302
H -0.2005405 -1.3064991 1.2139314
H -2.9832191 0.33018237 -0.4670535
