19

C -0.9219267 0.32778397 -2.1491253
C -1.289493 0.5453812 -0.6840658
C -0.2791651 1.3721322 0.09180413
C -0.063640095 0.8598297 1.4688694
C 1.0837536 0.2386183 0.68364596
C 1.0999768 -1.2624314 0.47916132
O 1.3928022 -1.9556011 1.6747677
H -0.6486872 1.2782415 -2.6177285
H -1.7495184 -0.11794309 -2.7104688
H -0.06140954 -0.34903136 -2.238768
H -1.5740749 -0.41410354 -0.21532512
H -2.1927285 1.1720885 -0.63038385
H 0.9740221 0.8582552 -0.3453936
H 0.23374256 1.5686911 2.2416394
H -0.7804051 0.11929618 1.8476034
H 2.0498307 0.6529143 0.9799762
H 0.14798485 -1.5978279 0.043945085
H 1.8960603 -1.5316976 -0.2215671
H 0.6828754 -1.764596 2.3014133
