19

C 0.77732235 2.0599267 -0.8122603
C 0.9901822 0.9558623 0.22220029
C 0.65490514 -0.41431838 -0.34386328
C 0.5114918 -1.5725297 0.75571835
C -0.71291816 -0.8001979 -0.5335269
C -1.9390993 -0.41892684 0.2550503
O -2.3307462 -1.548466 0.84251183
H 1.3811095 1.8854578 -1.7106295
H 1.0586363 3.0359085 -0.40516865
H -0.27452114 2.111716 -1.1171055
H 0.37314793 1.1492927 1.1066982
H 2.0346591 0.94520915 0.558047
H 1.3417845 -0.7251132 -1.1344688
H 1.0640554 -2.457893 0.4465126
H 0.8783052 -1.1425412 1.6912576
H -0.9080307 -1.6346074 -1.2071598
H -1.7127993 0.45505303 0.91151804
H -2.622745 -0.0056825764 -0.53697616
H -0.5647401 -1.8781505 1.0116446
