15

C 0.23114169 1.9124377 0.13224132
C 0.0852902 0.08024193 1.7595756
N -0.24640381 -0.8273649 0.76861894
C 0.2367523 -0.6215644 -0.45523784
O 1.0183125 0.37862793 -0.5737369
C -0.24972287 -1.4177374 -1.6283032
H 0.71338046 2.388992 0.9773662
H -0.8530788 1.9004691 0.20464094
H 0.5644661 2.33307 -0.8146963
H 1.1524582 0.2206617 1.8910651
H -0.49959636 -0.036890954 2.66928
H -1.0294814 -1.4572213 0.8861164
H -0.8760499 -2.258305 -1.3107615
H 0.5878827 -1.81818 -2.2076569
H -0.835351 -0.77723634 -2.2985122
