15

C -0.41336697 1.2881292 -1.1328009
C 0.2745338 0.81855667 0.019313209
O -1.2626798 0.5034389 0.96277446
C 0.92848366 -0.53981733 0.14305134
O 1.2862273 -0.825334 1.4584454
C 0.048794206 -1.6494675 -0.41130552
O -0.22512636 -2.6113155 0.2664766
H -1.4429226 1.0173315 -0.10694607
H -0.33325988 2.346993 -1.3644038
H -0.49855494 0.6349152 -1.9987235
H 0.73859996 1.545942 0.684485
H -1.3772713 1.1159068 1.7098178
H 1.8331325 -0.4957734 -0.4895034
H 0.7487166 -1.596611 1.7118311
H -0.3053062 -1.5528942 -1.4525115
