19

C -1.1866463 -2.5841258 -0.22282875
C -0.25752264 -1.554169 0.41538978
C 0.03736881 -0.38049835 -0.5402766
C 1.0297807 0.4995656 0.15576701
C 0.37481958 1.4602458 1.1614281
O 0.8664352 2.722652 0.72675586
C 0.9148179 2.4846997 -0.641893
H -2.1370542 -2.1270232 -0.5207346
H -0.72871786 -3.019705 -1.1179746
H -1.4073542 -3.4008067 0.47194302
H 0.6882894 -2.0277107 0.7032989
H -0.7125332 -1.171241 1.33929
H -0.92605126 0.11320718 -0.77703416
H 0.45067865 -0.7875292 -1.4716209
H 1.5293958 1.4222015 -0.7093086
H 0.67869085 1.2752823 2.1979008
H -0.7364358 1.4693351 1.1172647
H -0.06864708 2.4301622 -1.1320499
H 1.5906856 3.1754584 -1.1553172
