15

C 1.6478074 1.7615516 -0.12875491
O 0.46732703 1.107302 0.31759337
C -0.20785971 0.15409254 -0.95790404
O -0.021356393 0.553104 -2.0485291
C -0.37398624 -0.98594075 -0.109712645
C -1.3993577 -0.92053396 1.0068674
O -0.32891247 -2.1961837 -0.79426783
H 2.4656463 1.0437223 -0.2721549
H 1.9328716 2.5001194 0.62311214
H 1.4397788 2.2594671 -1.0812657
H 0.6154678 -0.037987962 0.52376044
H -1.4295849 0.06396947 1.4816003
H -1.1608481 -1.6692413 1.7687862
H -2.411005 -1.1391131 0.629181
H -1.2359885 -2.4943273 -0.9583116
