15

C 0.94769424 -2.2051811 -0.21200219
O 0.53695357 -0.89773566 -0.5849409
C -0.4020599 -0.37656257 0.28101933
O -1.3907437 -1.0442655 0.7345788
C -0.664725 1.0499433 0.09564495
C 0.21761219 2.072784 -0.5121535
O -1.7973047 1.378745 0.6206482
H 1.4976977 -2.182352 0.73891926
H 1.6071982 -2.5578492 -1.0070525
H 0.08182245 -2.864283 -0.110798225
H 0.26512712 0.20773385 1.1755487
H 1.2114017 1.6577661 -0.6860838
H 0.27243912 2.9726384 0.106093414
H -0.21892132 2.3503733 -1.4787439
H -2.1641915 0.4382454 0.8393227
