19

C 0.106779575 -2.3916242 -0.44067866
C 0.64517754 -0.9611756 -0.33248547
O 1.8635749 -0.81177413 -1.0429949
C -0.42379656 -0.0715257 -0.9202618
C -1.4380871 0.37734297 0.061650462
C -0.46875563 1.5520478 0.002441991
C 0.30651316 1.9145278 1.253333
H -0.7515222 -2.5519335 0.22162732
H 0.9026264 -3.0894346 -0.16627792
H -0.2053035 -2.6049411 -1.4691767
H 0.90398395 -0.7736309 0.7214683
H 1.599034 -0.69724977 -1.9681736
H 0.25657496 1.2004751 -0.87547994
H -1.4506656 -0.101132326 1.0482082
H -2.4455268 0.5763794 -0.30522603
H -0.9033369 2.4030151 -0.52539915
H 0.7745091 1.0361719 1.7068782
H -0.36620498 2.35359 1.9978052
H 1.0944258 2.6408725 1.0327411
