15

C -1.3060791 -1.5248816 -0.5658162
C -0.44798467 -0.54177856 0.217913
O 0.6810104 -1.2618701 0.65527606
C -0.08155998 0.6546375 -0.6651633
O 0.0697756 1.9115118 0.06860261
C 1.1425593 2.1257775 0.7700769
O 2.0343192 1.1817236 0.8860294
H -0.7795853 -1.8468904 -1.4712098
H -2.2656713 -1.0806701 -0.84944296
H -1.4935448 -2.4097974 0.047592323
H -1.0288988 -0.15403469 1.0722139
H 1.3410996 -0.6228363 0.96518457
H -0.8870256 0.8892389 -1.3627663
H 0.8372483 0.44407612 -1.2206346
H 2.184337 2.2357938 1.4521445
