15

C -0.7579672 -1.6730778 -0.28010964
C -0.6386989 -0.2785984 0.3025632
O 0.5130621 -0.16124257 1.1382598
C -0.466783 0.8234181 -0.75941104
O 0.14869542 1.880552 -0.032429624
C 1.2062258 1.3673897 0.64830655
O 2.174353 0.7480076 0.04695356
H 0.12149813 -1.9128093 -0.88852984
H -1.6465777 -1.7482595 -0.91630983
H -0.84099853 -2.4163594 0.51696503
H -1.5057548 -0.041173086 0.9304958
H 1.526451 -0.24732944 0.47994748
H -1.4131068 1.1983659 -1.1517451
H 0.18235378 0.49850368 -1.5808275
H 1.3972478 1.9626125 1.5458714
