15

O -0.8330787 -1.8742234 0.80452
C -1.6352646 -0.8654622 0.22049281
C -0.7724417 -0.13637312 -0.7958342
C 0.31890023 0.6538681 -0.11306159
O 0.052953206 1.4623468 0.79988694
C 1.6730202 0.4481025 -0.48532438
O 2.4889138 1.5374511 0.30299854
H -1.310609 -2.2408 1.5575149
H -1.9794209 -0.13911481 0.96941966
H -2.5158565 -1.2953947 -0.28131038
H -1.3942792 0.5719274 -1.3569751
H -0.34634817 -0.8572465 -1.5023733
H 2.523771 0.45736477 0.5713681
H 2.0367205 0.3656433 -1.5015129
H 1.6930196 1.9119107 0.8101909
