19

C -0.19722691 -2.3249114 -0.25275072
C -0.24621929 -1.0020139 0.49871755
O -0.0676216 -1.1856682 1.8996139
C 0.91955 -0.071571104 0.17238383
C 0.5149924 0.8533656 -1.3996931
C 0.57588416 1.3644685 0.041061636
C -0.69400674 1.9778665 0.61489177
H -0.4500341 -2.1923118 -1.3122215
H -0.91120213 -3.0289173 0.18607576
H 0.80937093 -2.753763 -0.19301368
H -1.2544265 -0.5750568 0.40700668
H 0.8760648 -1.3802112 2.016587
H 1.0134183 -0.20729704 -1.3068484
H -0.49400526 0.75532573 -1.7986274
H 1.2255083 1.3217511 -2.080391
H 1.4329811 2.0239143 0.20141731
H -1.6017889 1.4979037 0.23814361
H -0.7540415 3.041491 0.36187023
H -0.69719696 1.8856353 1.7057763
