15

C 1.1158503 -0.53284 0.58734065
C -0.21765995 0.101411924 0.5453127
C -0.3462797 1.4667094 1.197207
N -0.048078217 0.1591561 -0.88431996
C -0.31232777 -1.1805538 -1.5330948
O -1.5378414 -1.4770176 -1.5936813
H 1.9691448 0.1152866 0.42137003
H 0.38528055 -1.7869604 -0.783463
H 1.3177534 -1.5333673 0.9542146
H -1.0430202 -0.56672674 0.8161333
H -1.2902882 1.9306732 0.8920755
H 0.47767273 2.123835 0.8971636
H -0.34316233 1.3805245 2.287295
H -0.43496597 0.9880416 -1.3430507
H 0.3079219 -1.1881725 -2.4605029
