19

C -0.06742998 3.0375946 -0.36785257
C -0.82254297 1.7049624 -0.53475225
C -0.2999186 0.5931135 0.31587905
C -0.4751309 -2.7732377 -0.62519443
C 0.083247885 -2.3130045 0.58396816
C 1.2767938 -1.1177722 0.53693426
O 0.7975798 -0.003163024 -0.09316487
H -0.11343261 3.4007275 0.6639272
H 0.9853865 2.9224234 -0.63959086
H -0.49811757 3.8134704 -1.0107057
H -1.8783989 1.8600351 -0.28498524
H -0.7835576 1.3983073 -1.5848197
H -0.49545103 0.5916513 1.3900477
H -1.3161939 -2.2708912 -1.0871055
H -0.008614945 -3.5845525 -1.1779535
H 0.61537045 -3.081607 1.1616307
H -0.66249925 -1.7716792 1.1993237
H 1.527517 -0.9338197 1.5850413
H 2.1353927 -1.4725589 -0.030627418
