15

O 2.0433843 -1.6143274 0.5532978
C 1.5585726 -0.91464186 -0.44508377
C -0.055494197 -0.035394963 0.17361395
C -1.0053287 0.16978137 -0.9799216
O -2.07201 1.008293 -0.61240095
C 0.091687806 0.91417694 1.2660818
O -0.6872923 -0.28147295 1.4358264
H 0.7676417 -1.0632589 0.54440176
H 2.0236132 0.045433972 -0.74036366
H 1.1247317 -1.4425641 -1.31713
H -0.48449698 0.65553087 -1.8115621
H -1.3602908 -0.8122933 -1.3301811
H -2.469238 0.6144693 0.17836076
H -0.49380606 1.8297204 1.2463939
H 1.0183259 0.9265475 1.8386668
