15

C 1.411456 0.21212119 1.4703902
C 0.42041653 -0.38178143 0.5148728
C -1.7763355 0.59271026 -0.17354268
N 0.7833731 -0.5020929 -0.80094725
C -0.16924925 -0.74550605 -1.7068169
O -1.3495915 -0.88143426 -1.2516352
H 0.88835996 0.69407797 2.3054633
H 2.0188715 0.9913917 0.9913696
H 2.1038418 -0.5219698 1.9133593
H -0.2428768 -1.1633599 0.86289126
H -2.7022169 0.57864213 -0.7436519
H -1.1820246 1.4787235 -0.39218584
H -1.9534904 0.43723455 0.88620806
H 1.6835519 -0.15569766 -1.1106012
H 0.06591414 -0.6330591 -2.7651737
