19

C 1.3875597 -1.1587625 -1.3661815
C -0.0854656 -1.0381105 -1.0622063
O 0.07008797 -1.1608206 0.86212444
C -0.9882016 -0.30724567 1.0599701
C -0.7145153 0.299546 2.3247697
C -0.86795944 0.6803314 -0.04179725
C 0.28335556 1.6431797 -0.13671967
H 1.8698546 -1.8805139 -0.7045203
H 1.8983798 -0.1982372 -1.2429932
H 1.536315 -1.4700947 -2.4090161
H -0.61661786 -1.9870428 -1.0118911
H -0.580271 -0.43731785 -1.8394691
H -1.9845972 -0.7830761 1.0281109
H 0.23345499 0.81026 2.456677
H -1.4067068 0.29405108 3.163713
H -1.785195 1.0161637 -0.53658986
H 0.5603019 1.7797894 -1.1907042
H 0.03342429 2.6384494 0.24875091
H 1.1567962 1.2594513 0.3979729
