15

C 0.56389564 0.74564934 -1.561022
C -0.73412997 0.13596267 -0.6847233
O -0.96717584 -1.1348197 -0.8549526
C -0.009460308 0.49761716 0.505065
O -1.3649355 -0.7246364 1.6534927
C 1.0809336 -0.4051071 0.9983895
O 1.7840887 -0.103371665 1.9335752
H 0.16605122 0.5399452 -2.557744
H 0.7620061 1.8162632 -1.4668605
H 1.4814489 0.16414942 -1.4464055
H -1.5284868 0.8672924 -0.9384746
H -1.4070778 -1.2019113 0.75539523
H -0.043694653 1.4968839 0.93861514
H -0.9579126 -1.338559 2.280073
H 1.1744494 -1.3553579 0.4455769
