15

C 1.626659 -0.1066128 0.17318527
C 0.17015488 0.01693342 -0.26820493
C -0.26193556 -1.1415931 -1.1633605
N -0.7084738 0.109074935 0.8994418
C -1.4585097 1.170926 1.1892945
O -1.4218692 2.2128606 0.3825882
H 2.2900314 -0.15052655 -0.69750476
H 1.7814654 -1.022402 0.7584154
H 1.9189422 0.74875987 0.7897158
H 0.030994393 0.96260995 -0.8010514
H -1.300334 -1.017836 -1.4854311
H -0.17799073 -2.099324 -0.6330888
H 0.37282696 -1.1978691 -2.0542977
H -0.75036746 -0.6758585 1.5333992
H -2.1115942 2.1908572 1.376899
