19

C 2.2450457 1.7003015 -0.66044575
O 1.4691776 0.53981566 -0.78453153
C 0.10762399 0.7700637 -0.5044191
C -0.70454407 -0.48973516 -0.65901536
C 0.13430044 -1.7781863 0.43080297
C -1.3854996 -0.91889656 0.98915994
C -2.0880563 -0.28180122 -0.1518338
H 2.210422 2.104348 0.36470306
H 1.9102236 2.4903724 -1.3516387
H 3.276331 1.4323225 -0.9022444
H 0.019002492 1.2899009 0.47663093
H -0.31826755 1.4577172 -1.257668
H 0.37622523 -1.9640508 1.4927169
H 1.0711081 -1.4285258 -0.0030381586
H -0.15313368 -2.7189639 -0.035251744
H -1.0820767 -0.24596307 1.7887172
H -1.8155309 -1.850813 1.3444432
H -2.388084 0.75037813 0.048709568
H -2.884268 -0.8582839 -0.6257973
