19

C -1.3020613 2.1499267 1.3273652
C -0.18567534 1.1541834 1.0249374
C -0.64120454 -0.024215676 0.16440754
C 0.5167064 -0.965652 -0.15584058
C 1.6323943 -0.3044849 -0.9611461
O 1.5119871 -1.8805679 -1.9948063
C 0.27928808 -2.0232253 -1.2351623
H -1.7189685 2.566773 0.40321976
H -2.1215363 1.6712493 1.8764656
H -0.935539 2.984984 1.9337173
H 0.23595728 0.7746673 1.966207
H 0.63255054 1.6700976 0.50140923
H -1.0596955 0.35456023 -0.77864033
H -1.4421874 -0.5760452 0.67702013
H 0.8679484 -1.4438058 0.76985365
H 2.6198616 -0.39168856 -0.49167594
H 1.4775078 -0.8505348 -2.2758334
H -0.5897615 -1.8129181 -1.8715644
H 0.22242785 -3.0533028 -0.8799333
