19

C -2.6253932 -0.109806426 0.08111894
C -1.2770687 0.39997506 -0.4399423
C -0.36139622 -0.803673 -0.58403844
C 1.4458898 0.31310707 -1.0344198
C 2.065141 0.03457059 0.32127517
C 0.9654012 -0.37322134 1.3064176
O 0.15966779 -1.2939626 0.5729695
H -3.0302033 -0.8815809 -0.5814105
H -2.5123687 -0.55174077 1.0766559
H -3.3510303 0.70739084 0.14896195
H -1.4105171 0.83780974 -1.4360182
H -0.9253596 1.2095101 0.21933217
H 0.5837335 -0.61745715 -1.401531
H 2.128386 0.10996616 -1.866289
H 1.0146425 1.3085873 -1.1474087
H 2.604692 0.9137651 0.6930108
H 2.7841656 -0.78694564 0.23924589
H 1.3554598 -0.90671873 2.1769211
H 0.3861585 0.49042457 1.655149
