19

C 0.53330004 0.18808684 2.2434335
C 0.24456419 0.29167145 0.72591543
O 1.2218423 1.1268796 0.13066447
C 0.14165325 -1.143315 0.2216122
C 0.27197254 -0.61561537 -2.1002545
C -0.76033795 0.26915374 -2.1162958
C -1.0909266 0.7739035 0.47072366
H 1.470135 -0.36197573 2.390412
H -0.26111805 -0.33382997 2.7865705
H 0.6526105 1.193845 2.652156
H 1.9504194 0.54467523 -0.123533964
H 0.4807518 -1.9013423 0.9446365
H -0.762024 -1.4506991 -0.27935266
H 1.29846 -0.2645436 -2.1286657
H 0.12555799 -1.6679505 -2.3244548
H -1.7829596 -0.051202115 -2.2985463
H -0.5636632 1.3352046 -2.1507018
H -1.8894465 0.4474729 1.1290015
H -1.2807909 1.6195811 -0.17332062
