16

C 0.88839513 -1.264493 -0.7362466
C 0.23030807 1.1699902 -0.63780385
C -0.6166557 0.48459086 1.6576908
C -0.16473372 -0.19559385 -0.85006285
C -1.1232547 -0.71543837 1.2462832
C -0.037223678 1.5637424 1.4422992
H 1.2577858 1.4150258 -0.58953375
H 1.5875413 -1.2404059 -1.6072931
H 0.29487753 2.4619656 1.9558485
H -0.637294 -1.6467003 1.5223298
H -1.1577712 -0.38960096 -1.2192043
H 0.22421442 0.5465728 -1.8400499
H -0.48126888 1.9732348 -0.9210241
H 1.5009441 -1.113839 0.15059848
H 0.45383003 -2.2733746 -0.7081519
H -2.2196946 -0.7756763 1.1343205
