15

C 0.98119736 1.2636795 -0.32380763
C -1.1227187 -0.60743076 1.3409425
C -0.66909575 -0.22945663 -0.005148573
N 0.9317914 -0.2273312 -0.150755
C 0.07733445 -1.1242546 -0.9268489
O 1.1885682 1.87753 0.7350454
N 0.90826195 1.5724757 -1.5985142
H -2.195629 -0.81345886 1.3391548
H -0.9567059 0.22425687 2.0249925
H -1.1878841 0.5938974 -0.5209899
H 0.16390075 -2.1566386 -0.6624906
H 1.3655964 -0.5543073 0.6751288
H 1.0602484 2.5530455 -1.6786462
H -0.61233914 -1.4961096 1.728198
H 0.06747356 -0.8758972 -1.9762611
