15

C 0.19963524 -0.51145786 0.31898347
C -0.82772654 -1.1448125 -0.6265543
N 0.5200361 -0.6354457 1.7150202
C 0.21460636 0.61335135 -0.53396714
C 0.6291832 2.013026 -0.39775562
N -0.47257572 -0.020934695 -1.5374458
O -0.24005131 -1.7448416 2.1172078
H 1.1697453 2.3565307 -1.2918013
H -1.1855575 0.4641049 -2.0861838
H 0.12440604 -1.9851017 2.9817572
H -1.8420938 -1.1111416 -0.24032582
H -0.23339145 2.6562057 -0.23900712
H -0.62392277 -2.1363592 -1.0341107
H 1.2829826 -0.9210074 0.38138956
H 1.2847241 2.107884 0.4727935
