16

C -0.55766374 0.6950675 -1.2995834
C -0.9931407 -0.9445246 0.42555976
C 0.8012959 0.2694563 -0.6668997
C 0.5119997 -0.4488809 0.6508147
C -1.0125229 -0.6403774 -1.0024273
C 0.9137896 0.7021944 1.5203702
H -1.0172566 1.5151291 -0.74550134
H -0.94434154 -1.4107535 -1.7461569
H 1.2600162 0.52408963 2.53656
H 1.4765124 1.0998051 0.057703335
H -1.1670234 -1.9920224 0.6714735
H 1.156736 -1.325548 0.811638
H -0.45462412 0.9613531 -2.352297
H 1.4782245 -0.23691495 -1.3381232
H -1.6906365 -0.33515313 1.023435
H 0.23863521 1.5670798 1.4534346
