15

C -0.2890614 0.09561418 1.2853547
C -0.64163786 1.1717707 -1.2349386
C 0.53321517 -1.3183914 -1.1978965
N 0.8383815 1.2544098 -1.2411714
C 0.18135102 0.08352556 -0.9846575
O -0.86049116 1.2588613 1.3127002
N -0.27069828 -0.55453676 2.4275916
H 1.3412111 -1.6441518 -0.52753913
H -0.6692708 -0.16732423 3.2761977
H -1.2275 1.3919444 -2.1190383
H -0.33337867 -1.9638362 -1.0445373
H 0.8819671 -1.454882 -2.2383807
H -0.97975624 1.4969243 0.30499512
H 0.20750828 -1.4383512 2.4766204
H 1.2881602 1.7884232 -0.49530026
