17

C 1.4703788 1.1366671 -1.1099955
C -1.8635784 0.21808505 0.64116806
C -0.7038014 -1.8114388 0.2663254
C -0.79880846 0.9915117 -0.015510734
C 0.34877038 0.40260887 -0.40721694
C 0.5538683 -1.0712507 -0.15834664
O 1.6285913 -1.2781082 0.75661933
H 2.4288378 0.90337795 -0.62565047
H 1.5313954 0.7985615 -2.1482046
H -0.9782963 2.0516436 -0.16312416
H -1.8918152 0.2396597 1.732261
H -1.7898792 -0.90856713 0.2578165
H -2.865116 0.4573521 0.26665044
H 0.8933149 -1.5360905 -1.0802042
H -0.6969434 -2.0388005 1.3379629
H 1.4151133 -0.7701031 1.5519047
H 1.3179681 2.2148905 -1.1024547
