15

N 0.172219 -0.73019844 0.09425281
C 0.24776712 1.7520493 -0.11261686
O 0.7283915 2.8020806 0.24591258
C 0.5066847 -1.9348366 -0.40855142
N -0.91020334 1.6451539 -0.8205441
C 0.98531 0.45291117 0.19701882
C -0.873775 -1.0670911 0.89243364
H 1.8055693 0.38118324 -0.49852338
H 0.6349651 -2.0615728 -1.4973406
H 0.7100961 -2.7688 0.23890263
H 1.4028189 0.5332808 1.2024906
H -0.85656685 -0.8727608 1.976408
H -1.7885574 -1.3907243 0.40856367
H -1.4295156 2.4945626 -0.9505196
H -1.3352034 0.76476216 -0.9678866
