16

C 1.7778455 -0.21133798 1.9029344
C 1.0899371 -0.836479 0.756803
C -1.9859338 -0.17140496 -1.2638109
C 0.49344116 -1.5277631 -0.06704667
C -0.9365458 0.68350524 -0.5695734
C 0.49549595 0.13057408 -0.6277621
H 1.1904572 0.90663385 -0.286649
H 1.1878366 0.5907475 2.3569129
H 1.9135514 -0.9908722 2.6666229
H -0.90104455 1.6845622 -1.0141562
H -2.0281625 -1.1674074 -0.8195584
H 2.7608552 0.19905937 1.653192
H -1.7266597 -0.29821733 -2.3249378
H 0.8309581 -0.091884434 -1.6435053
H -1.2038485 0.8129796 0.49228904
H -2.9581838 0.28730485 -1.211755
