17

C 0.23802894 -0.13626243 1.1901084
C 0.17677878 -1.413163 0.43765348
O 0.6070685 0.14154427 -1.2124261
C 0.80592996 -1.2177277 -0.9384209
C -1.2567554 -0.9633936 0.45627198
C -0.074609935 2.1328063 -0.07677132
C 0.655566 0.80493027 0.06122498
H -1.1836531 0.022388851 1.1823592
H 0.35952 -1.7863811 -1.7671843
H 1.7134458 1.003834 0.30050305
H 0.3880475 2.7452524 -0.851926
H -0.018610964 2.6822567 0.86990744
H 1.8857458 -1.4413825 -0.87994677
H -1.9182845 -1.558117 1.0797917
H -1.6716031 -0.63884544 -0.47738522
H 0.4043642 -2.3495512 0.96002436
H -1.110978 1.9718109 -0.33378404
