16

C -1.6867338 0.23952301 -0.7265521
C 2.2700706 -0.6764111 1.4924325
C 1.6360428 -0.21333168 0.250497
C -0.6098387 -0.75178546 -1.0264678
C 0.6456126 -0.7347318 -0.40143797
C -1.200173 1.6534845 -0.48299783
H 3.3228588 -0.88780373 1.3184357
H 2.2629404 0.15622398 2.218636
H -2.2609043 -0.10651804 0.14708625
H -0.69953007 2.0646002 -1.3577935
H -2.4038694 0.2187706 -1.5726973
H 1.8072307 -1.551211 1.9964252
H -0.48191997 1.6654054 0.3646587
H -2.0444386 2.3049676 -0.22448677
H 0.23274666 -1.8521847 -0.24103557
H -0.7900944 -1.5289979 -1.7547022
