16

C 0.8872994 -1.2386144 -0.44844514
C -0.19607036 1.3339676 0.32513934
C 0.082443036 -1.1409962 0.69441575
C -0.0782991 0.18668371 1.3623247
C 0.73218125 -0.22768041 -1.3784536
C -0.17704521 0.79924136 -1.0733808
H 0.044301063 -2.0340602 1.3453796
H -1.2711703 -0.8730257 -0.11200767
H 0.6304102 2.0473948 0.4552792
H 1.0954006 -0.366128 -2.395552
H -1.1253237 1.8950833 0.48039868
H -1.3429034 -0.23100393 -0.7272809
H 1.3227227 -2.1846004 -0.73048866
H -0.9432826 0.17072216 2.036648
H -0.46417797 1.4861711 -1.8504767
H 0.8035145 0.376845 2.0165002
