16

C 0.8704407 0.099116676 0.228549
C 0.053315114 0.9693175 -0.7320264
C -1.191075 0.9831616 0.1558999
C 1.4536417 -1.1970543 -0.28300208
C -0.22191183 -0.14234285 1.325616
C -1.4695498 -0.4542566 0.4905279
H -2.37369 -0.666233 1.0603019
H 1.9078794 -1.7786318 0.5129584
H 0.70626056 -1.8272703 -0.78548336
H 2.2462835 -0.97803813 -1.0235894
H -2.0029535 1.6795673 0.1055072
H -1.3155084 -1.1286852 -0.3364939
H 1.6724944 0.6814945 0.6561868
H -0.13324222 0.5456659 -1.7304283
H -0.69720185 1.2555329 1.2344548
H 0.49481735 1.9586556 -0.8789783
