16

C 1.5420072 0.6342736 0.36743376
C -1.153315 0.33305582 -0.012866514
C -2.241293 1.333499 0.26125944
C 1.8290211 -0.66329837 -0.06023274
C 0.09517699 -1.7677858 -0.60553586
C -0.88822126 -0.8674589 -0.36814693
H 0.3288246 -2.0201018 -1.6274108
H -3.2173824 0.896314 0.039232973
H 1.777563 1.4584017 -0.29708964
H 2.2810397 -0.8361077 -1.0112256
H -2.197901 1.6814557 1.2805871
H 1.6096643 0.8812331 1.4175289
H -2.1139693 2.2069979 -0.40234545
H 0.17721084 -2.601597 0.07152275
H 2.1043923 -1.4081465 0.6979061
H 0.06718191 0.73926556 0.24938242
