16

C 0.2506082 0.4692522 -1.1769054
C -1.1880465 0.5709662 -0.6396203
C 0.28834373 -1.3284132 0.7086034
C 0.92297953 -0.71052074 -0.5000485
C -1.1819428 0.30314577 0.84927994
C 1.5483067 -0.54169613 0.84528
H 0.7842897 1.4232464 -0.9498391
H 0.22863773 0.35706756 -2.2554173
H -2.1508017 0.14108539 1.3074591
H -1.8223467 -0.18584716 -1.1169323
H -0.5851509 0.9907568 1.450629
H 1.5548619 0.45178255 1.2765894
H 2.4050722 -1.1417106 1.1208265
H -1.637398 1.5667441 -0.84301764
H 1.3818617 -1.4395113 -1.1761011
H -0.79927486 -0.92634743 1.099215
