16

C -0.50108683 1.5412633 -0.6597165
C -0.9765351 1.0467875 0.5831956
C 0.5157944 -0.9993609 0.5979731
C -0.7050217 -0.31168115 1.2071506
C 0.48432398 0.6344488 -1.3420026
C 0.47878796 -0.85265076 -0.9260486
H -0.101782665 1.9257513 0.57547253
H 0.5565313 -2.058056 0.8947237
H -0.43046516 -1.3286071 -1.3335583
H 1.4409567 -0.525322 0.9588826
H -1.7213823 1.6373485 1.1141186
H 1.3384801 -1.3616031 -1.4001676
H 0.3304503 0.73825485 -2.42849
H -1.6082574 -0.9300365 1.0367303
H -0.5915633 -0.22446552 2.2923896
H 1.4907697 1.0679288 -1.1706532
