15

C -0.047265586 -0.017625695 0.083868094
N 0.018475462 -0.14137663 -1.2392656
C 1.1171508 0.33334652 -2.069963
N 0.9238607 0.36786252 0.8882332
C -1.4795926 -0.2437225 0.81989354
O -2.4380276 -0.058701925 0.06910804
C -1.1821921 -0.457743 2.155554
H 0.34801084 0.37342647 1.8532575
H 0.7435439 0.5446269 -3.0739439
H -0.47198159 -1.2573435 2.370368
H 1.9018804 -0.42028332 -2.1542702
H 1.5521419 1.2409396 -1.6376975
H 1.9107277 0.34438783 0.66777945
H -1.9881003 -0.35601532 2.8810787
H -0.9086315 -0.25177816 -1.6140008
