16

C -1.4489583 0.016015364 1.2354208
C 0.9880481 0.31394082 -1.1777654
C 0.45323926 -1.1627014 0.61889356
C 0.72376215 1.1367863 0.08032664
C -0.4852732 -0.023198098 -1.2559556
C -0.4046853 0.06609265 0.29587588
H -2.3828533 -0.49443197 1.0323057
H -0.0033145656 -2.1384416 0.41318682
H 1.5085777 1.2223542 0.83497846
H -1.3349893 0.4309419 2.2358365
H 1.6343981 0.6628467 -2.0061
H -1.067881 0.79931 -1.6804397
H 1.284169 -0.87488896 -0.3383111
H 0.33389166 2.1357179 -0.17325668
H 0.9744526 -1.1183541 1.5919234
H -0.77258354 -0.9719896 -1.7069196
