17

C 1.0873275 1.5812465 0.56219584
C 0.8601719 -0.23990251 0.270276
O -1.3876482 0.22984658 -0.18982626
C -0.26316455 -0.82041967 -1.9969151
C 0.31372136 0.61580276 1.375422
C -0.38323444 -0.7322617 -0.48289165
C -1.2076937 0.6236381 1.1661493
H -1.228852 -1.1024599 -2.4394937
H 0.6456659 0.35044673 2.388374
H 2.112794 1.5400263 0.9493157
H 1.6253009 -0.97386056 0.5277337
H -1.7042024 -0.08099767 1.8401109
H 0.49365127 -1.5667874 -2.2959692
H -1.6371738 1.6130275 1.2579299
H -0.66230005 -1.7244905 -0.07581657
H 1.3213712 0.524801 -0.45506525
H 0.014265196 0.1623449 -2.4015296
