16

C 0.16826338 -0.48252913 -1.2825292
C -0.15039335 1.3309306 0.44978932
C -0.93236107 -0.9165742 -0.30753055
C 0.37762982 1.0167035 -0.9492223
C 0.6262343 0.009757813 1.5168116
C -0.7636862 0.024464041 0.88288355
H -1.5736877 0.016758855 1.59961
H -1.9143738 -0.74100614 -0.7523914
H 1.0947458 -1.0510408 -1.1114202
H -0.8917573 -1.974503 -0.026919095
H 1.3984302 1.3723823 -1.1329628
H 0.5959362 0.04097327 2.6106539
H 1.0040077 1.1033032 1.3096415
H -0.2767719 1.6167358 -1.5918993
H 1.3299135 -0.70832556 1.1159414
H -0.092129216 -0.65803075 -2.3304565
