15

N -0.4873152 1.3712343 1.1067203
C -1.1784885 0.24086869 1.3373964
O -2.051034 0.03663261 2.1824117
C 0.95062137 -0.84860665 -1.5361383
N -0.26761857 -0.39594933 -0.8473161
C -0.76544106 -0.92052007 0.40684423
C 0.5318325 0.5213429 -1.1723216
H 0.87701696 -1.1762977 -2.569766
H 1.0591093 1.1339289 0.665947
H -1.6415583 -1.55306 0.20232332
H -0.8092414 2.0962121 1.7312394
H 1.6207052 -1.3986524 -0.88030493
H 0.46898 1.4799095 -1.6515123
H 1.7064483 0.9421183 0.11744542
H -0.01401641 -1.5291607 0.9070311
