16

C 0.99112934 0.3884691 -0.9290919
C -0.40386897 0.49778244 -1.5157785
C 0.6945243 -1.703267 0.6259525
C -0.6861926 0.5865871 0.8312364
C 0.14476687 -0.43029723 0.040667973
C -1.1260817 1.3702861 -0.45032185
H 1.7215513 -0.20131819 -1.4909855
H 1.4118333 1.2905589 -0.49732327
H 1.0818441 -2.3691382 -0.13695782
H -0.75770354 2.4013698 -0.49794453
H -0.08227706 -2.246034 1.1787435
H -0.6736352 -0.78624254 -0.78506166
H 1.5164565 -1.4682156 1.3254604
H -1.5257814 0.11188652 1.3339013
H -2.1949768 1.3901651 -0.591877
H -0.11158854 1.1674069 1.5593799
