17

C 0.7847562 0.19247429 0.5360959
C -0.82892597 0.093714476 -1.4086461
O 0.60095793 -1.1850823 0.31286508
C 0.64839494 0.45046267 2.0302439
C -1.6691817 0.39388484 -0.24248482
C 0.35616037 -1.4426196 -1.0001788
C -0.28491384 0.91201115 -0.28668272
H 0.0028794766 -2.4673977 -1.126838
H -2.5666301 0.9866232 -0.34827057
H 1.1595591 -1.2079853 -1.6933763
H -0.82132787 0.33130533 -2.4442537
H -1.0009907 -1.0204116 -1.0798438
H 1.7723308 0.4891081 0.15206066
H 1.3765545 -0.15219375 2.580848
H 0.84956783 1.4983578 2.247506
H -0.022415373 1.9345815 -0.5699539
H -0.35677534 0.19316655 2.340909
