16

C -0.23465006 -1.861551 0.6523424
C 0.5668832 2.8825893 -0.3215865
C -0.37599188 -0.5063483 -0.046444733
C 0.30947453 -0.49222973 -1.4196119
C 0.1348471 0.5628284 0.8529145
C 0.30230942 1.8840731 0.49806142
H 0.21174268 0.47430587 -1.9006636
H 0.370787 0.33368796 1.8731205
H -1.4536045 -0.32734787 -0.23454928
H -0.6379397 -2.6674862 0.005437548
H -0.13222684 -1.258232 -2.07569
H 0.83237106 -2.093598 0.83558476
H -0.37363952 1.9812651 1.4400698
H -0.14291401 3.677347 -0.44846943
H 1.3796484 -0.7001364 -1.3108075
H -0.7570971 -1.8891673 1.6002921
