15

N 1.2053211 -0.15254036 0.8355246
C -0.0066722287 -1.0121427 0.62438804
O -0.6143691 0.22157189 -1.9207903
C 0.811593 0.9644006 -0.034048628
N -1.7536598 0.75690436 0.018213538
C -0.4515011 0.4558665 -0.7313337
C 1.3017547 -1.3534132 0.0187057
H 1.4353861 -1.2408435 -1.0590631
H 1.5799279 1.2522988 -0.79549646
H -0.29693204 -1.591153 1.4983995
H -1.3793768 -0.19953977 0.47246897
H -2.558213 0.63627636 -0.6096839
H 0.6244478 1.8409499 0.5813847
H -1.8051233 1.5635041 0.6215312
H 1.9074167 -2.1421402 0.4797998
