17

C 1.4272776 0.533007 -1.5064867
C 0.7923691 0.46638018 -0.134616
O -0.41077343 1.2548658 -0.1513088
C -1.064192 1.0123392 1.0032601
C -1.0627322 -1.0849657 0.85971934
C -0.64837515 -1.7149993 -0.4032362
C 0.36374047 -0.93220705 0.2858463
H 1.6656877 1.566226 -1.7756425
H 0.74318004 0.11960184 -2.2531905
H 2.3505425 -0.05431548 -1.5198177
H 1.4687577 0.9052871 0.62020916
H -0.4932509 1.0784014 1.9333059
H -2.027776 1.5244571 1.032593
H -1.2610161 -1.5115958 1.8405449
H -1.0796795 -1.3645545 -1.3393576
H -1.8600341 -0.33267248 0.6042506
H 1.0962744 -1.4652547 0.9039269
