15

C 0.3787243 1.6679404 -1.0877837
C -0.3277398 0.54542184 -0.378785
N -1.0325834 -0.4758862 -1.2292806
C -0.3513795 -1.5826547 -0.45127594
C 0.15843438 -0.47602755 0.43059468
N 0.26042014 -0.10971005 1.7011428
O 1.2225889 -0.80371773 2.4472206
H -0.30524132 2.4927206 -1.3140416
H 0.7896654 1.3025953 -2.0374584
H 1.1890687 2.066426 -0.46734703
H -0.20431319 1.0609795 1.1218626
H -2.0320246 -0.49888697 -1.0323769
H 0.38907534 -2.0833354 -1.0793991
H -0.99925196 -2.3223097 0.03079477
H 0.8645569 -0.78355527 3.346133
