16

C -1.1993119 -0.14572278 -1.4788861
C 0.107627675 0.22342762 -0.90483236
C 0.2962037 1.397491 0.2234856
C 0.87094986 0.4836306 1.2111589
C 0.047186777 -0.7038956 1.4243506
C 0.32500622 -1.0261267 -0.05568894
H -2.0276318 -0.1348286 -0.76602936
H -1.5112143 0.18696484 -2.47459
H -0.6643484 -1.499282 -0.76547647
H 0.88709503 0.36482438 -1.6564679
H 0.9503771 2.2095237 -0.09786508
H -0.6836381 1.7950426 0.5008608
H 1.9429675 0.43490967 1.3807966
H -1.0140274 -0.5186405 1.6255542
H 0.44891593 -1.4562196 2.103461
H 1.2238418 -1.6110985 -0.26983142
