16

C -0.40792504 -2.2966714 0.013622155
C 0.13351108 -1.0650717 0.72930485
C 0.78951466 -0.044940643 -0.19515184
C -0.2834797 0.27029246 -1.5659598
C -0.23262785 1.295202 -0.83394504
C -0.33609182 2.5843017 -0.13345921
H -1.1925379 -2.0210612 -0.69527
H -0.8130028 -3.0176334 0.73151946
H 0.3861239 -2.7938604 -0.55521494
H 0.88431144 -1.3677895 1.4727302
H -0.6736697 -0.57137847 1.2865196
H 1.2798516 0.72791743 0.41727376
H 1.5981853 -0.47662783 -0.7882546
H 0.6089965 3.1371415 -0.15856373
H -1.0984336 3.1873977 -0.6349414
H -0.6427258 2.4527812 0.9097906
