15

C -2.0048676 1.1789497 -0.02319349
N -0.63006073 0.8883427 0.31020778
C 0.025139904 -0.12984343 -0.28941572
N -0.28327155 -0.8820304 -1.2726552
C 1.4159985 -0.50975454 0.78933245
O 1.3935392 0.14887325 1.81717
C 2.239822 -1.3646281 0.09914209
H -2.3610737 1.9894025 0.61511856
H -2.6577945 0.30583352 0.12111701
H -2.0871687 1.506035 -1.0666909
H -0.26422188 1.1222827 1.2278585
H -1.2231185 -0.6980041 -1.6263882
H 1.4042528 -0.01462247 -0.4421863
H 3.1773052 -1.6963911 0.53518075
H 1.8555193 -1.8444453 -0.7945976
