15

N -0.7029239 -0.33152455 1.7685015
C -1.3729002 0.5303401 0.9592563
O -2.4813573 0.96982473 1.2018987
C -0.6321451 0.95151806 -0.31427163
N 0.42052272 0.06565703 -0.75438136
C 1.7097123 -0.06097158 -0.32925564
C 0.38192832 -1.028985 -1.5408198
H -1.1055946 -0.5251147 2.672648
H 0.27752247 -0.5174276 1.6172663
H -1.3760102 1.0617207 -1.1064242
H -0.1880707 1.937744 -0.12482714
H 2.416042 0.76491845 -0.43623188
H 2.0184343 -0.95308274 0.20487131
H 1.0223712 -1.0705353 -2.4114623
H -0.38753125 -1.7940813 -1.4067681
