16

C 1.8204926 -1.301846 1.2203829
C -1.6513836 -0.2020357 1.0491961
C -0.8867697 0.23051274 0.05505654
C -0.42412534 -0.3792147 -1.2548507
C 0.84951234 0.49480206 -1.1176454
C 0.09163463 1.3805689 -0.09522778
H 1.0604018 -2.0870204 1.0021539
H 1.3096201 -0.7331102 2.03039
H -1.7642169 0.36932528 1.9676259
H -2.2034106 -1.1361861 0.97538793
H -1.047305 -0.051364537 -2.0954804
H -0.31024602 -1.4667042 -1.3035918
H 1.2367774 0.9761134 -2.019867
H 1.6665561 -0.060450885 -0.6314521
H -0.3739547 2.2471855 -0.57961434
H 0.62641686 1.7194252 0.7975363
