17

C -0.63114125 0.3378365 1.9711277
C -0.35628104 0.6987635 0.51167476
O 1.0173799 0.9035367 0.30498108
C 1.5291476 0.3136881 -0.9036837
C 0.3865345 -0.52550495 -1.4676989
C -0.32621264 -1.0269687 -0.26854587
C -0.78093374 0.39333075 -1.4379234
H -0.44222164 1.2262416 2.5841606
H 0.0064336276 -0.4740999 2.335251
H -1.6814723 0.0555308 2.1007779
H -0.9394675 1.5966485 0.31921938
H 1.8216153 1.104044 -1.6026404
H 2.4088523 -0.2822417 -0.62989604
H 0.58391136 -1.1870378 -2.308064
H 0.29460102 -1.3110367 0.5765429
H -1.1694021 -1.6981258 -0.4011844
H -1.7213434 -0.12460482 -1.6840984
