16

C -0.3277843 1.2255421 -0.42673334
C -0.7781084 -0.1467339 -0.18850917
C -0.40822732 -1.218084 -1.2047025
C 0.49023443 -0.77330554 1.5699447
C 1.2658423 0.32488972 1.34406
C 1.4709432 1.3977216 0.7357956
H -1.4094855 0.7472156 -1.0063794
H 0.2230715 1.4561262 -1.3324693
H -0.7953711 2.0458853 0.10691667
H -1.6370752 -0.30562526 0.45481217
H 0.12153147 -2.0507627 -0.7398859
H -1.2848498 -1.6263032 -1.7193772
H 0.26079053 -0.7932942 -1.9614654
H -0.16059007 -0.77060425 2.4456396
H 0.8473657 -1.7609161 1.2826562
H 2.1217124 2.2482488 0.6396974
