16

C -0.7673868 -0.50892556 -1.1707085
C -0.7641059 0.30717903 0.11842208
C -1.2737899 -0.52754796 1.308081
C 0.60479075 0.81310445 0.5047991
C 1.8036941 0.42019415 -0.06120202
C 2.6564097 -0.39664108 -0.6260546
H -1.7740878 -0.89061105 -1.3728629
H -0.08381661 -1.3608825 -1.0929569
H -0.45191783 0.09657327 -2.027069
H -1.4334344 1.1712857 0.0031570718
H -1.2768258 0.052054934 2.2377324
H -2.297147 -0.87052834 1.1191778
H -0.6378934 -1.4071022 1.4569964
H 1.8308381 1.5843012 -0.20205909
H 0.63342565 1.5672128 1.2919093
H 3.2312467 -0.049666967 -1.4873623
