16

C -1.1024809 0.39475885 -0.7520411
C -0.3383545 1.3343403 0.21958227
C 0.84248847 0.620276 0.8564395
C 0.709769 -0.7121471 1.233417
C 0.03225068 -1.5551814 0.34634408
C -0.4477103 -0.97482204 -0.82349336
H -1.1681458 0.8295532 -1.7550323
H -2.1314323 0.26066473 -0.39919788
H -1.011499 1.6631377 1.0194467
H 0.0071445964 2.238611 -0.2924319
H 1.5557951 1.2529742 1.3819747
H 1.3851238 0.28572717 -0.62648857
H 1.3452427 -1.134576 2.0079954
H 0.1421504 -2.6336365 0.42575714
H -0.76512885 -1.6143153 -1.6451162
H 0.94478685 -0.2553647 -1.1971554
