17

C -1.0971886 0.952488 -1.6226752
C -0.43374178 0.16458905 -0.5365251
C -0.3673292 -1.1630578 -0.46621418
C 0.30171585 -1.7843845 0.717406
C 1.1767508 0.0013739683 1.3409811
C 0.2469505 0.9360368 0.5831111
O 1.0973637 1.9557556 0.065131634
H -0.38941273 1.673885 -2.04345
H -1.9389421 1.5307505 -1.2209717
H -1.4721442 0.30606627 -2.4218626
H -0.8017027 -1.8178754 -1.2182667
H 1.2723073 -2.2415926 0.53857285
H -0.34762517 -2.526661 1.209751
H 0.25781947 -1.0344828 1.613753
H 1.080192 0.07057906 2.439341
H -0.50925285 1.4866395 1.1653521
H 1.9242398 1.4898902 -0.14343452
