15

N 0.6269705 0.17984685 1.4615752
C -0.18442854 1.2134261 1.2712446
O -0.47734842 2.1780665 1.972242
C -0.87663263 1.1566875 -0.12511255
N -0.5080069 -0.060867783 -0.82442015
C -0.56159395 -1.5167538 -0.7055877
C 0.3788431 -0.6817326 -1.4796517
H 1.0676185 0.27461272 2.3761747
H 1.6104068 -0.55704314 0.33984613
H -1.9616162 1.1728437 -0.009839504
H -0.5642141 2.0056803 -0.73777837
H -0.20461655 -1.9195701 0.24121423
H -1.3967823 -2.008989 -1.2001394
H 1.9495634 -0.92519826 -0.31774008
H 1.1018369 -0.51100904 -2.2620277
