16

C -0.68391484 -0.028083887 1.4967037
C -0.15039355 1.0233629 0.53813374
C 1.1648607 0.64798576 -0.14664939
C 0.8456281 -0.67682636 -0.8571924
C -0.66590977 -0.5746693 -1.144614
C -1.317885 0.4330495 -0.19043112
H -0.055817936 -0.904145 1.645085
H -1.1178707 0.37843597 2.4088564
H -0.22754999 2.047118 0.9045942
H 1.4149032 1.4265372 -0.8777839
H 2.0062182 0.5720418 0.55155534
H 1.0582091 -1.5292424 -0.20132357
H 1.4435252 -0.8233391 -1.7621583
H -1.1814383 -1.5402741 -1.178403
H -0.8315898 -0.11160514 -2.128218
H -1.7009747 -0.34034574 0.9418444
