16

C -0.5771564 -1.0897534 -0.47450018
C 0.31343544 -0.99440986 0.76356
C 0.25961053 0.4199547 1.3437027
C 0.3049245 1.4877381 0.25572786
C 0.2418973 1.3061569 -1.1375178
C -0.09158157 -0.11129146 -1.551914
H -1.6139152 -0.8475683 -0.19630328
H -0.5920736 -2.1140182 -0.86552554
H 1.3475375 -1.2309648 0.4777687
H 0.019638572 -1.7274876 1.5233406
H 1.0994221 0.59713626 2.0267124
H -0.64953715 0.55727375 1.9444903
H 0.58471817 2.485417 0.6122464
H -0.73053044 1.8268528 -0.3433758
H 0.8624133 -0.47033834 -1.9718584
H -0.7788028 -0.09469718 -2.406554
