16

C -0.9718588 1.1183766 1.365693
C -1.0241939 1.6818248 -0.048921842
C -0.48341545 0.76824063 -1.11707
C 0.108247146 -0.47517106 -0.92047256
C 0.29966646 -1.6368518 -0.37501752
C 1.5390571 -2.3943198 -0.05892993
H -1.3978962 0.1111404 1.4022359
H -1.5377831 1.7569484 2.0520306
H 0.059151642 1.0573334 1.7297184
H -0.53216296 2.6630988 -0.09790265
H -2.0712993 1.8720082 -0.33555213
H -0.5586541 1.1337862 -2.140588
H 0.9247385 0.117938906 -1.5301473
H 1.3376458 -3.4452925 0.17505029
H 2.2457738 -2.3732083 -0.9014282
H 2.0629833 -1.9558531 0.80130213
