17

C 2.080998 0.48175502 0.2325831
C 0.7817495 0.45480618 -0.5461075
O 0.48241556 -0.90073854 -0.903123
C -0.9060027 -0.9464739 -1.1474981
C -1.4877471 0.0744467 -0.17320152
C -1.0566593 -0.18804139 1.2575324
C -0.44376832 1.1076179 0.08198743
H 2.885501 0.030073045 -0.35471123
H 1.9815493 -0.089034975 1.1628069
H 2.3551702 1.5112747 0.4787293
H 0.8958789 1.0478725 -1.473639
H -1.1418898 -0.6535647 -2.183433
H -1.249736 -1.9732325 -0.9858358
H -2.5252957 0.3712241 -0.31792367
H -0.4798022 -1.098291 1.4050465
H -1.823287 0.013620836 2.0036192
H -0.34907427 0.7566861 1.463168
