16

C 0.10502681 -1.3117032 -1.4389329
C -0.045991972 -0.3509483 -0.2803691
C 0.29901895 -0.7821023 1.1266603
C -0.95795006 0.032485195 1.3266629
C -0.4458196 1.4614276 0.986884
C 0.2749246 1.1436812 -0.34544402
H -0.33942202 -2.285127 -1.2082331
H 1.1707364 -1.4676567 -1.6454443
H -0.36765832 -0.92128533 -2.346644
H 0.20383014 -1.8522696 1.317273
H 1.2378873 -0.3733477 1.506149
H -1.2454741 -0.28787747 -0.075797245
H -1.2539756 2.1901822 0.8802478
H 0.22195663 1.8109654 1.7842926
H 1.3494366 1.3598719 -0.38929808
H -0.20652573 1.6337043 -1.198007
