15

C 1.2822052 -0.3322822 -0.87523717
C 0.13089186 0.17287248 -0.041123517
C 0.3791865 0.5853623 1.3669554
N 0.121490754 1.6244048 0.40520495
C -1.2870942 -1.0053267 -0.041807644
O -0.9906915 -2.0916967 0.34508553
N -2.2192636 -0.2449122 -0.5410619
H 2.232778 0.10177507 -0.5394152
H 1.3585057 -1.4202589 -0.78322315
H 1.1481987 -0.08513663 -1.9338298
H -0.39552918 0.44316366 2.1169288
H 1.3975133 0.43610507 1.7238368
H 0.9905972 2.0434954 0.07570494
H -1.0123656 0.44200638 -0.5990524
H -3.136423 -0.66957206 -0.67896557
