15

N -0.06490175 -0.75933677 1.7651775
C -0.024689786 -1.03752 0.20625849
O 0.58250445 -2.0150387 -0.12780514
C -1.092548 -0.23489493 -0.551013
N -0.54007214 1.08537 -0.781099
C 0.7463223 0.95758575 -1.465224
C 0.74427193 1.0405546 0.0128919445
H 0.53985506 -1.4332566 2.2350192
H -0.99036586 -0.71398395 2.194363
H -1.3423076 -0.7722382 -1.4735343
H -2.0035005 -0.16699193 0.063595064
H 0.9837163 0.005735955 -1.948048
H 0.9995974 1.8286927 -2.0681226
H 0.42750543 0.18440104 1.5493932
H 1.0346129 2.0309215 0.38814718
