15

C 1.1955309 -0.99958086 -0.9420612
C 0.30603817 -0.8088256 0.07419805
C -0.85775113 -1.4082514 0.7175679
N 0.29428527 -0.88357407 1.4862722
C -0.26874802 1.3085341 -0.24506374
O 0.46548423 1.5773928 -1.2770512
N -0.958339 2.357525 0.1888149
H 2.2642043 -0.93827206 -0.75060016
H 0.8664011 -1.4687937 -1.8650529
H 0.9325692 0.67349124 -1.4455196
H -1.7781497 -0.84693277 0.8472667
H -0.97641826 -2.486815 0.62342817
H 0.9138971 -1.6235476 1.8061894
H -1.5222597 2.2719214 1.0181175
H -0.8767444 3.2757285 -0.23650627
