16

C -1.2385676 0.63038075 -0.99417555
C -0.06546034 1.0875819 -1.5970684
C 1.7011868 0.48034 -0.5993431
C 1.1838696 -0.24414502 0.43102232
C 0.11753466 -0.6592668 0.9762668
C -0.42012793 -1.4592731 2.109347
H -1.7874535 -0.18550189 -1.4609294
H -1.8488271 1.3317716 -0.42816818
H -0.7206965 -0.14573824 0.17353195
H 0.18900682 2.1395164 -1.5033903
H 0.24831133 0.62884307 -2.530667
H 2.19683 -0.052289683 -1.4099289
H 2.1418195 1.4522555 -0.38006166
H 0.39112294 -1.8547525 2.725951
H -1.0709279 -0.84853303 2.744383
H -1.017621 -2.301189 1.74323
