16

C 1.2541063 -1.0188235 -0.4465072
C 0.9191337 0.021774884 0.5938996
C 0.14064603 1.2739717 0.25491783
C -0.9806866 1.0178907 -0.74034435
C -1.2897246 -1.2528634 0.06075628
C 0.127715 -1.2676574 0.50982666
H 0.9827755 -0.8274755 -1.4826072
H 2.187282 -1.5613152 -0.32375214
H 1.6330929 0.13074566 1.4086593
H -0.2730763 1.6817161 1.1848036
H 0.8130912 2.0403562 -0.1518992
H -0.6524116 1.1049502 -1.7807503
H -1.8575858 1.6511537 -0.58666074
H -1.3894593 -0.08718853 -0.7671243
H -1.8891438 -0.9310531 0.93892145
H 0.2742451 -1.9761827 1.3278606
