16

C 1.2494057 0.61529 -1.3042879
C -0.16348056 0.5050867 -0.7429244
C -0.7023549 -0.91632515 -0.4324934
C -0.98309755 -0.5805056 1.0302248
C 0.27649716 0.04758668 1.5770261
C -0.31025335 1.1177335 0.69199556
H 1.2973821 0.18707374 -2.3118167
H 1.5580211 1.6647813 -1.3692818
H 1.983692 0.08765878 -0.6857496
H -0.8424678 1.026408 -1.4268074
H -1.6040535 -1.1562799 -1.0028411
H 0.014004408 -1.7373495 -0.5592334
H -1.6341746 -1.1397794 1.7037643
H 1.1915827 -0.45438325 1.263401
H 0.26659325 0.2673617 2.6445675
H -1.5972964 0.4656422 0.9244562
