17

O -0.76967317 0.47277388 -2.0393581
C -0.81292015 1.001222 0.46560568
C 1.0914526 0.02822985 0.5351215
C 0.27962935 0.76460475 1.4703233
C -1.0731972 0.12068105 1.6618332
C 0.20987342 -0.37578213 -2.148119
C 0.44736466 -1.3387625 -1.2236632
H -1.2838687 1.9776953 0.385535
H 1.2809821 -2.019515 -1.3718656
H -1.1714181 -0.952202 1.5234627
H 0.8999995 -0.16976859 -2.9689288
H 1.8332325 0.5897052 -0.040769197
H 1.3908978 -0.9764363 0.7690549
H -0.90572035 0.5867452 -0.9973362
H -0.38497767 -1.6928107 -0.6223827
H 0.68714815 1.4803998 2.1670477
H -1.7188048 0.5032203 2.4344387
