17

O -0.31559 -0.4185851 2.0880663
C -0.69982874 1.2228492 0.41231307
C -0.17561623 -1.4072691 -1.0196483
C -1.1620288 -0.27009135 -0.7306827
C 0.21014562 0.4855454 1.3911738
C 0.83566403 -0.37305877 -0.8511489
C 1.4399265 0.0006607411 0.4260652
H -0.15140574 -2.1320364 -0.19042286
H 2.1895792 0.7899119 0.29828352
H 1.8594499 -0.86418855 0.9524188
H 1.001932 0.26820648 -1.71064
H -0.27918 -1.8618352 -2.0080693
H -1.6802967 1.476193 0.7518331
H -1.6084783 0.20075755 -1.5889575
H 0.5645864 1.4467992 1.9170035
H -1.8404521 -0.5468464 0.06745202
H -0.18840618 1.9829879 -0.20504013
