17

C -0.7376171 -1.195309 0.18416068
C -0.71639884 0.23981847 0.6403644
C -0.9239637 0.26527336 -1.9393439
C 1.6358057 1.1419474 1.0025585
C 2.299328 -0.053352777 1.1590788
C -1.453626 -0.1452921 -0.5884943
O 2.381729 -1.234885 0.9459872
H -1.2454482 0.50879085 1.552223
H -1.3206202 -1.8961756 0.7861093
H 0.1860246 -1.6166767 -0.23152263
H 1.3172439 1.6051193 1.9461702
H -1.3024178 -0.38825005 -2.7321484
H 0.17615539 0.19574758 -1.9485711
H -1.1922975 1.2932082 -2.1795816
H -2.5416389 -0.11015306 -0.5214753
H 0.20873947 0.83439416 0.40458792
H 3.2290018 0.5557945 1.5198973
