17

C 0.588887 -0.4729946 0.8243965
C -0.06585638 -0.3529857 -0.9783784
C -0.22916189 -1.5791728 1.4884421
C -0.69543004 1.1331375 -2.475657
C 0.20236595 0.959732 1.0260781
C 0.53778714 0.8409659 -0.425308
O -0.32696742 2.0475388 -1.7252958
H 0.006260506 -1.6219453 2.533633
H 0.44427103 -1.0300823 -1.6476187
H 0.88402516 1.6203622 1.5878457
H 1.5486124 1.0813072 -0.71629417
H -1.1012671 -0.5777196 -0.7579378
H -1.3053063 1.4501488 -3.3459704
H 1.6406997 -0.6678739 0.9582582
H 0.0034435373 -2.5654788 1.0514876
H -1.2919478 -1.4229337 1.3649464
H -0.84041524 1.1579944 1.2373724
