17

C 0.3307123 -0.2884625 -0.49075007
C -1.0062218 0.40274426 -0.10609303
C 1.0614066 -0.20484976 -1.7820551
C -0.30367234 1.1395311 1.029353
C 0.94871616 0.24218035 0.824642
C -1.4786524 -1.0395658 0.06907253
O -0.31632543 -1.5856069 -0.32878414
H -2.0116415 -1.4620521 1.1013513
H -1.4767505 -1.134743 1.7926224
H -0.78450346 1.0943416 2.0198364
H 1.1109118 -0.53748024 1.5746129
H 0.4003544 -0.46405014 -2.6203895
H -1.5995942 0.96823066 -0.8115671
H 1.4341646 0.79134715 -1.9569101
H 1.9036154 -0.91276616 -1.7794583
H 1.8883753 0.8055404 0.6724631
H -0.1008952 2.1856608 0.7920538
