17

C -1.3297875 -0.13115515 0.97933394
C 0.27329385 0.14113675 -0.40502715
C 0.34231874 -1.1819459 -0.9332838
C -0.33068585 -1.1086257 1.016148
C -0.2121322 1.3222593 -1.2147385
O 0.8923674 -0.8022719 1.5677716
C 1.2165676 0.34384567 0.7556863
H -0.5478962 -2.1841414 1.0785623
H -1.038037 1.042002 -1.8438821
H 2.2563426 0.26714087 0.4721276
H -1.2297916 0.75025725 1.6096827
H -2.3009393 -0.37275228 0.59246135
H -0.36820433 -1.4580989 -1.710732
H 1.2212526 -1.7291238 -0.8072908
H 0.61070997 1.6471586 -1.8691803
H 1.0493332 1.2912773 1.2823527
H -0.5047121 2.1630375 -0.5699916
