17

O -0.35895014 1.0672388 2.3583024
C 0.6195718 -0.92075586 -1.533953
C 0.09163165 0.45348662 -1.8689507
C 0.86966944 0.51133454 0.7024213
C -1.3546653 -0.49762055 0.9846286
C 1.0904046 0.271198 -0.7556845
C -1.1509782 0.11050906 2.2246485
H 2.1065633 0.6283651 -1.0077621
H -0.05382896 -1.5958934 -1.0168076
H 1.1257056 1.5236026 0.99737793
H 0.43170083 0.90797955 -2.7958157
H -1.4791805 0.16382034 0.14650626
H -1.6714361 -0.24458359 3.1288018
H 1.3091496 -1.381953 -2.2197628
H 1.2703798 -0.246659 1.3676995
H -1.9026275 -1.4412771 0.905301
H -0.9431106 0.6912077 -1.6169511
