17

C -0.28751227 -0.25012153 0.47288993
C -1.6261662 -0.58881944 -0.19167084
O -1.3374312 0.35600448 -1.202931
C 0.9620259 1.2533004 -1.3255575
C -0.0056903027 -1.5258979 -0.26260215
C -0.25349832 0.94812566 -0.48847228
C -0.06574556 -0.13578333 1.96628
H -1.251846 -1.7720072 -0.60227555
H -0.39356473 -1.057157 2.458717
H 1.7754699 1.6349217 -0.6807492
H 0.55865717 -1.507291 -1.1880152
H -0.6432282 0.71017575 2.3634357
H -0.60550594 1.8482697 0.028161366
H 0.73480004 2.0476487 -2.0396495
H 1.3120881 0.3973661 -1.8874841
H 0.13797678 -2.3806422 0.40062487
H 0.9891702 0.02190706 2.1792984
