17

C 0.8587826 0.6562154 -0.0070775677
C 1.3643155 -0.698968 0.4673329
O -1.1203309 0.86140615 1.4416775
C 1.7597301 -0.61497504 -0.94928485
C -0.091103666 -1.1881627 0.6978922
C -1.5814682 0.29548287 -0.8572651
C -0.5833532 0.21693805 0.29721537
H 0.95483273 0.51634437 -1.2122893
H -1.7961444 1.337201 -1.1055547
H -1.4687936 1.6959335 1.1479746
H 1.2694998 1.5919405 0.34839705
H 2.746336 -0.15119216 -0.96858233
H -1.1808493 -0.18116017 -1.7408801
H -2.5227106 -0.20562825 -0.5844426
H -0.3681882 -2.0124886 0.044561684
H 2.1012774 -0.72667146 1.2486765
H -0.34183222 -1.3922157 1.7316489
