17

C 0.29803342 1.2527988 -0.16638424
C -1.7823981 -0.2902633 -0.6378926
O 0.91625077 0.2297696 1.7871901
C -0.014409412 -0.5114067 1.2857668
C 1.4696101 0.9479766 0.7229343
C 0.69669276 -1.1088624 -0.5616887
C -0.37059903 -0.139449 -0.10441386
H 0.57461077 1.5128785 -1.1830106
H -2.147378 -1.3000098 -0.4796069
H -0.36233398 2.065182 0.2197288
H -0.41698098 -1.3022178 1.9135231
H 1.7012349 -0.32665986 0.037471283
H 1.094198 -0.9054544 -1.5670701
H -2.456087 0.4235832 -0.15969884
H -1.783294 -0.09793305 -1.7231377
H 0.4366585 -2.1556184 -0.46026096
H 2.146191 1.7056868 1.0765504
