17

C -0.15612476 0.71576756 0.41971073
C -0.82382214 0.4776618 -0.8461825
C 1.2226291 0.7253235 -0.0185827
C 2.006236 -0.37589943 -0.6917038
C -0.30980912 -0.40738606 1.3738424
C -2.4518254 -0.4384914 -0.044806533
O -2.1321042 -0.84717983 1.0243236
H -1.218706 1.2929173 -1.4406506
H 1.3943887 -1.2646508 -0.88391715
H 2.4334054 -0.038775973 -1.633199
H 1.8034335 1.6238674 0.20420487
H -0.51662964 -0.38450614 -1.4362375
H -0.28616527 -0.18608889 2.430439
H 0.13728978 -1.3457152 1.1079884
H -0.4637694 1.6490659 0.87472904
H -3.4719224 -0.533925 -0.4099494
H 2.833496 -0.6619847 -0.030008977
