17

C 0.0031864643 1.7505927 0.36010113
C 0.33106047 -1.0510534 0.6936532
C 0.6785047 -0.025556972 -1.5998353
C -0.624525 0.6569021 0.97177535
O -1.6266961 -0.02854273 0.3680978
C 0.87952495 0.020994535 -0.08541578
C -1.1119472 -1.376158 0.38344195
H -0.54361165 0.58035755 2.0637052
H -0.36964864 -0.025963228 -1.8881931
H -1.3205671 -1.8452657 -0.5906589
H 1.878059 0.33807707 0.27334973
H 0.5820692 2.4396658 0.9666473
H 1.1500343 -0.9561972 -1.9495878
H 1.1743723 0.80860656 -2.0806746
H -0.2993015 2.0681286 -0.6431401
H -1.6056687 -1.9521424 1.1720037
H 0.8251542 -1.4024451 1.5847301
