17

O -1.8385383 0.62532365 -0.12649976
C -1.6047049 1.6258708 0.62299585
C -0.34613705 2.0128834 1.02484
C 0.2995617 0.48632607 -0.93299276
C 1.0024567 -0.6076677 -0.30149865
C 0.15521064 -1.6606357 0.40172398
C 0.79026794 -2.0082507 -0.88487965
H -2.4837914 2.1982007 0.97295487
H -0.14184207 2.9804683 1.4735311
H 0.36338556 1.2172104 1.2210007
H 0.8147525 1.4298385 -1.045021
H -0.48480555 0.28174654 -1.6422256
H 1.9706837 -0.38466913 0.14288206
H 0.56984264 -2.0685363 1.3186314
H -0.89985806 -1.398669 0.416247
H 1.660389 -2.659599 -0.88564634
H 0.17312688 -2.0698404 -1.776043
