17

C 1.3165733 0.080454975 1.7027581
C 0.5105646 -0.72989386 0.7022304
C -0.99551165 -0.73390704 0.7863613
C -0.706197 -0.5179916 -0.6557986
C 0.3852973 0.407838 -0.8197864
C -0.9501002 1.2792199 -2.3290002
O -1.862579 0.5189455 -2.0213487
H 1.383626 -0.47835872 2.6448684
H 0.8475036 1.0441275 1.9250621
H 2.3363113 0.2684092 1.3496649
H 0.94658166 -1.7100778 0.5206604
H -1.4882272 -1.6715168 1.0357649
H -1.4145466 0.11518575 1.3298597
H -0.66733843 -1.4190695 -1.2635443
H 1.2214664 0.22021146 -1.4803457
H 0.38154098 1.3424742 -0.275837
H -1.2449648 1.9839487 -3.1515694
