17

C 1.2321644 -0.8999775 -0.2796412
C -0.17893183 -0.34775802 -1.2117462
O -1.2283617 -1.1249455 -1.1740694
C -2.0006495 -0.6992823 -0.0034911968
C -1.0164636 -0.18025872 1.0002757
C -0.09442747 0.4511305 -0.029007193
C 0.64191675 1.7351401 0.14414524
H 2.0908394 -0.5701526 -0.8653568
H 1.4290788 -0.7496288 0.79266626
H 1.0385928 -1.9661392 -0.40413326
H 0.22513029 -0.09006761 -2.1873984
H -2.6785192 -1.5078549 0.26645443
H -1.4645934 0.58073926 1.6539193
H -0.43815333 -0.8647623 1.6938417
H 1.3191216 1.6933491 1.0074948
H 1.2141562 2.0150707 -0.74626815
H -0.09090023 2.5253973 0.34231442
