17

C -0.1487051 0.9440099 -1.877322
C 1.0012579 0.2893815 -1.1455325
C 1.564925 0.9164324 0.10105243
C 0.7686401 -0.34981164 0.18771613
C -1.6700083 -0.60851383 1.0235062
C -1.4581922 -1.2917253 2.222121
O -0.5982589 -1.5462409 3.0325034
H 0.2048303 1.7330469 -2.549723
H -0.85310936 1.3932858 -1.1675384
H -0.6996899 0.21002632 -2.4768808
H 1.7217951 -0.21801335 -1.7853289
H 2.6327996 0.8610191 0.29040974
H 1.0876827 1.8224909 0.46649343
H 1.2183751 -1.2935655 0.47504652
H -1.9522907 -1.2292464 0.16663718
H -0.2439884 -0.14856412 0.6215419
H -2.5760627 -1.4840119 2.4152975
