17

C -1.5088414 1.2794111 -0.42964283
C -0.80186605 0.09151275 0.11615183
C -0.30676034 -0.9901903 -0.64848346
C 1.2360094 -0.9677393 0.024639541
C 1.9064736 0.09658917 -0.5984376
O 0.75651234 -0.9444673 1.4313846
C -0.31124493 -0.03403768 1.5168989
H -2.5215309 1.0282006 -0.7735504
H -0.97408646 1.6690427 -1.3096032
H -1.5877614 2.0826125 0.3103886
H -0.5771338 -1.9965235 -0.31210622
H -0.35931087 -0.89628 -1.7342149
H 1.7767127 -1.9197537 0.0041078343
H 1.3789144 0.9762771 -0.95033544
H 2.9775193 0.054654706 -0.7714307
H -1.0510695 -0.48035213 2.199496
H -0.032536235 0.95104355 1.9247372
