17

C 1.2115259 0.40537837 1.6745802
C 1.37244 0.21876362 0.1826249
C 0.92309606 -1.0368873 -0.5034176
C 0.22695935 0.2509497 -0.81159467
C -1.1869954 0.47300708 -0.4013157
C -2.2532544 -0.81675774 -1.0478672
O -2.2123916 0.2724337 -1.7625582
H 2.0704033 -0.030729733 2.1974416
H 0.3128032 -0.08809749 2.060766
H 1.1619182 1.4661747 1.9456908
H 2.2870202 0.6623987 -0.20866224
H 1.5458242 -1.4845691 -1.2719308
H 0.3448805 -1.7501785 0.08011376
H 0.44860816 0.71905196 -1.766344
H -1.4820687 1.5288093 -0.40187165
H -1.4970264 0.097589016 0.59013885
H -3.2737427 -0.88733625 -0.555794
