17

O 1.3389114 0.085240595 -1.6936289
C 0.41933 -0.71743304 -2.07975
C -0.12784062 -1.770762 -1.3858172
C -1.1350882 0.40457824 0.13214877
C -0.75674057 0.7851549 1.4121947
C 0.7203308 0.20635054 0.96786636
C 0.5127465 1.5472708 1.5630109
H -0.05802115 -0.48864362 -3.0557933
H -0.900074 -2.3800552 -1.848212
H 0.34500992 -2.1683018 -0.48969552
H -1.9031445 -0.34214708 -0.022087576
H -0.7715622 0.9380234 -0.7407511
H -1.200569 0.30853167 2.2795863
H 0.93436754 -0.6564672 1.5914915
H 1.0877231 0.15485351 -0.12217205
H 0.80855983 1.7049891 2.5959177
H 0.68606085 2.388817 0.8956913
