17

C -0.2673541 1.18587 1.7244338
C -0.07641213 0.18145642 0.62466234
C 1.3203148 -0.12545852 0.05306029
C 0.74485004 8.5691754e-05 -1.3813316
C -0.6785399 0.22373138 -0.8032907
C -1.4628166 -0.9907617 -0.31786528
O -0.83178324 -1.0376428 0.8829104
H 0.1987925 0.8218229 2.6470964
H 0.19487163 2.1419218 1.459027
H -1.33294 1.3469083 1.9145973
H 2.0719917 0.6301211 0.3024941
H 1.6966189 -1.1109405 0.3382126
H 0.84942496 -0.8704222 -2.0318527
H 1.1150515 0.8874561 -1.9043398
H -1.2722039 1.047993 -1.2053641
H -0.70615107 -2.2956262 -1.3396578
H -1.5637152 -2.036515 -0.9627919
