17

C -1.9512209 -0.67967397 0.028287249
C -0.9783709 0.47520968 -0.029203195
O -0.77458775 1.153453 1.2360349
C 0.60830355 1.2552873 1.0303319
C 1.0337521 -0.5603961 0.9956855
C 0.5316608 0.2619107 -0.13869756
C 1.2991467 0.34234762 -1.43196
H -2.032722 -1.1441822 -0.9613035
H -1.639037 -1.4433856 0.74640524
H -2.943595 -0.32231045 0.3218825
H -1.3146329 1.2125411 -0.7702124
H 1.2369726 0.46788368 1.8352529
H 2.0671237 -0.8921272 0.9024672
H 0.3557568 -1.2216567 1.5303314
H 1.0900302 -0.5252771 -2.0692565
H 1.034387 1.249972 -1.9851604
H 2.3770332 0.370404 -1.2408853
