17

O -0.9797885 1.9854136 -0.5610886
C -0.6293491 1.0704731 -1.2693169
C -0.9858987 -0.38023126 -1.0494326
C -1.1861571 -0.7354467 0.42941183
C 0.094516754 -1.1201975 1.1172085
C 1.9450049 0.98369485 -0.9591039
C 0.5706741 -0.5628961 2.225815
H -0.066561386 1.2795404 -2.2140849
H -1.9150722 -0.54949397 -1.6135732
H -0.2112545 -0.9998088 -1.5128092
H -1.8880767 -1.576812 0.49748477
H -1.6491877 0.11628689 0.93968236
H 0.6491277 -1.9394865 0.65553063
H 2.7516239 1.147897 -1.7092651
H 1.9508481 1.9311188 -0.37708673
H 1.4923877 -0.9119345 2.6849504
H 0.05716303 0.26188275 2.715678
