17

C 0.14560649 -1.5967025 -0.7949943
C 0.6268784 -0.17848401 -0.57410336
C -0.96223897 0.7970464 -1.2061943
C -0.49633867 1.2292078 0.051080775
O -1.1258388 0.7744661 1.1754302
C 0.017535377 0.12254974 1.8408761
C 1.0545076 0.18468173 0.7733417
H 0.9739981 -2.2524474 -0.4965507
H -0.12903547 -1.7905444 -1.835969
H -0.70879924 -1.8333285 -0.15317388
H 1.3211652 0.17854226 -1.3322372
H -0.8188545 1.4261802 -2.0784538
H -1.7502487 0.055253454 -1.2273182
H 0.028907586 2.1870322 0.09267265
H -0.3530515 -0.8679536 2.139375
H 0.3074186 0.6723159 2.7431989
H 1.8683884 0.8921848 0.8830195
