17

C -1.598248 -0.23099524 0.68673575
C -0.3341683 0.50952077 0.3204263
O -0.13121338 1.4793154 1.2951107
C -0.035970803 0.9342744 -1.0934274
C 1.340074 0.37436152 -0.81426704
C 1.0938845 -0.56637716 0.2833155
C 0.74495363 -1.8229505 -0.2714142
H -1.4881419 -0.7341233 1.6531174
H -1.8530856 -0.96747833 -0.077670686
H -2.4093583 0.50214374 0.7707209
H 0.60016054 2.0483942 1.0198632
H -0.62651485 0.48178834 -1.8967812
H -0.075522 2.0248015 -1.202959
H 2.2322087 1.0003706 -0.90303886
H 1.4795415 -0.48704758 1.3134913
H -0.0017759858 -2.4684339 0.1931052
H 1.0631768 -2.0775642 -1.2763283
