16

N -0.74168724 2.5743556 0.03162758
C 0.65625894 -1.4228938 0.023394424
C -1.3043137 0.2165733 -0.029265923
C -0.37300378 1.3951967 -0.24594723
C -0.6636821 -0.9965648 0.686964
C 1.7998474 0.4072731 -0.19942865
O 0.81770307 1.1033043 -0.86909646
H 0.5546142 -1.5513968 -1.052064
H -1.3889182 -1.8303293 0.66496146
H -0.4946563 -0.76674896 1.7339617
H -1.6302421 -0.119001225 -1.0329697
H 1.1088005 -2.295946 0.48139304
H 2.424545 -0.040687695 -0.98279786
H -2.16686 0.58803433 0.5079837
H -0.010399478 3.2396095 -0.26027176
H 1.4119943 -0.50077784 0.5415557
