16

C 0.79999685 1.1085033 0.20136334
C 0.38544297 -1.542362 0.5850198
C -0.09001576 -0.8591072 -0.5704454
C -1.6188899 0.4789156 0.111687936
C -0.41924638 0.4557075 0.86998093
C 0.7772684 0.25186676 -1.0973887
H 0.63282347 2.174356 0.04286871
H 1.3931223 -1.3583242 0.94317514
H -0.8348314 -1.330509 -1.217285
H 1.7909746 -0.08318164 -1.4044746
H 0.32938558 0.79095805 -1.9284682
H -0.44565007 0.25631684 1.9283056
H -0.20388515 -2.3130763 1.0421879
H 1.6883347 0.95940536 0.7816346
H -1.7047611 1.0594907 -0.78159076
H -2.4800692 -0.048960164 0.49342865
