16

C 1.6610783 0.7963052 0.81724244
C 0.15427232 0.7470794 0.72394174
C -1.2325455 -0.58607334 -0.26939926
C -0.44445738 0.51443154 -0.67325115
C -0.5865839 -0.55861235 1.1242216
N 0.05203734 0.7036624 -1.8642513
O -0.57666206 0.025768392 -2.775812
H 1.9916928 0.8215939 1.859125
H 2.0559437 1.6826605 0.3076335
H -2.2533908 -0.8358604 -0.5307605
H -0.7377947 -1.6442134 -1.348368
H -0.7050342 -1.3232657 -2.1564372
H -0.28937247 1.6166972 1.207118
H -1.3034962 -0.4913619 1.9488388
H 0.106746 -1.3802614 1.2875004
H 2.107566 -0.08854994 0.34265855
