16

C -0.28568658 -0.0046232357 -0.14257677
C -0.18359317 1.3219374 -0.9338618
C 0.46948653 -1.1202939 -0.8643098
C 0.38844493 0.30161902 1.2306619
O 1.6967992 0.4857256 1.2307831
C -1.6836295 -0.38194752 0.07695765
N -2.768495 -0.6872146 0.263066
H 0.84847945 1.6295176 -0.965047
H -0.7688132 2.1070077 -0.43430346
H -0.27860746 0.92301285 1.8571749
H 1.052305 -0.6070947 1.8637931
H 0.4035658 -2.075878 -0.31867084
H 0.10538291 -0.9452095 1.8873084
H 1.518424 -0.8389524 -0.9447606
H -0.5750696 1.1793965 -1.946341
H 0.061006866 -1.2870033 -1.8598738
