15

C -0.84481317 -0.9654232 1.252044
C -0.3541979 -0.1454967 0.18860482
O 0.16632162 -0.16606767 2.2323592
C 0.774169 -0.63393223 -0.6700601
N 1.4964647 0.3958001 -1.3734239
C -1.0723147 1.1044645 -0.18563324
N -1.571169 -1.8539535 1.616577
H 0.3061414 -1.3967359 -1.3361402
H -1.8442612 1.3554691 0.52946854
H 2.3455384 0.0049517164 -1.7734658
H -0.3440039 1.9299624 -0.27455857
H 0.069689274 -0.18182716 3.142148
H 0.94032896 0.7827593 -2.1386209
H -1.5234418 0.9753673 -1.1811464
H 1.455548 -1.2053384 -0.02815271
