16

C 1.1245314 -0.9816559 -1.7298495
C 0.68243355 0.956414 -0.14626196
C 0.48541617 -0.32483262 -0.5409954
C -0.91939354 0.023401137 1.2543167
C -0.47055414 -0.9551891 0.33608076
C -0.018315256 1.2321795 1.1402334
H -0.52634084 2.2010503 1.2134223
H 1.6997014 -1.853405 -1.4153514
H 1.7955606 -0.2846973 -2.2307389
H -0.7652545 -1.988121 0.33634177
H -1.6764264 -0.1047317 0.17689504
H 0.67742205 1.1398604 1.9986206
H -2.2715518 0.7753907 0.5107924
H -1.5343539 -0.19548519 2.1483479
H 0.36708367 -1.3196735 -2.442249
H 1.3500417 1.6794947 -0.6096039
