16

C 0.009036754 -1.2736585 1.2976904
C 1.3668871 0.94773203 -1.4559057
C -1.3451331 -0.747107 1.2637514
C 0.24691801 0.41449597 -0.5891265
C 0.35969347 -0.9029019 -0.10623291
C -0.83280087 1.220467 -0.24283992
H 1.9404956 0.13337363 -1.9313679
H -2.119761 -1.2856082 0.7460573
H 0.045029894 -2.3537743 1.3988695
H -0.7098391 2.294323 -0.2553153
H 0.84315825 -1.6443992 -0.7383171
H 0.9803956 1.5967354 -2.2382598
H 2.0851216 1.5265094 -0.84645855
H 0.66210455 -0.814374 2.0538826
H -1.839778 0.847832 -0.2841845
H -1.6915292 0.04035487 1.9277573
