16

C 0.039836064 -1.4277889 -1.1160947
C -0.20997463 -0.7456556 0.20168933
N 0.6216701 -0.973215 1.3397137
C -0.31956923 0.74183506 0.48209858
O 1.1724386 1.0025046 2.5289323
C 0.22984086 1.6547854 -0.58322096
C 0.6213648 0.3543923 1.666364
H 0.1279416 -2.4999747 -1.0041503
H -1.4704678 -1.2114651 0.47139877
H -0.42329058 1.7194927 -1.4518023
H -0.7596939 -1.2041061 -1.8429643
H 1.224792 1.3474715 -0.91891843
H -0.8403837 -1.4413226 1.048427
H 0.97400236 -1.0466348 -1.4933039
H 0.31467035 2.6650457 -0.16157511
H -1.3031771 1.0646354 0.83340645
