15

O -0.864614 -2.3358088 -1.7688085
C 0.70613647 0.94476444 0.50222516
N -0.36492777 -0.16162807 -1.4546627
C -0.4737538 -1.4444959 -1.0028855
C -0.33319297 1.027471 -0.609314
C 0.38647094 -0.15066288 1.5185487
N -0.23203257 -2.015295 0.15562594
H -1.3261662 1.191916 -0.16993421
H -0.803426 -0.044095874 -2.346802
H 0.7145726 1.8988662 1.0232956
H -0.58351946 -0.029442476 2.0023644
H 0.4087081 -1.2149519 1.0595013
H 1.6895999 0.76293063 0.07462838
H 1.1686664 -0.298957 2.265134
H -0.09252164 1.8693895 -1.2489166
