16

C -0.14232352 0.21941341 -1.2421018
O -0.510775 0.56208444 1.077561
C -0.08429402 -0.9286435 -2.1539352
C -0.6334157 -0.29764667 0.09677293
C 1.2222165 0.9161973 -1.1413629
C -0.8136964 0.26563373 2.3246422
N -0.022668803 -1.8439907 -2.880185
H 1.5389824 1.2619538 -2.1307418
H -0.87938976 0.91639286 -1.6523441
H 1.9744827 0.2375762 -0.7359587
H 0.5016196 -1.4809169 1.2582613
H -1.6535738 -0.40839747 2.4966643
H -1.3848184 -1.0551336 0.14441068
H -0.62443346 1.0951561 3.0093744
H 1.1375011 1.779649 -0.47403407
H 0.3745869 -1.2393278 2.0029762
