15

C -2.079345 -0.42352092 0.0097544845
N 1.4313729 -1.2014003 1.6757314
C 1.422496 0.81594306 -0.65721434
C 0.27693513 -0.23462112 -0.5037937
O 1.6678522 1.1149771 0.6818772
C 0.8437417 -0.623307 0.84798
N -1.0066105 0.41036573 -0.46455684
H 1.9491922 -0.06897581 1.4557389
H 0.24009047 -1.0707308 -1.1936262
H -2.2028756 -1.2936742 -0.6512191
H 1.0492951 1.6779138 -1.2098186
H -1.9358892 -0.8283194 1.0298139
H 2.2955143 0.38404608 -1.1676245
H -3.0347338 0.12878321 -0.0018514472
H -0.917036 1.2125207 0.14880909
