16

C 1.1879947 -1.0684081 0.832533
C -0.14575641 1.0356121 -0.18338923
O -1.5170331 1.1996726 0.09202706
C -1.2523624 -0.4313122 0.9035725
C 0.1683835 0.040038653 0.97232103
C 0.17234138 0.5236728 -1.5665829
N -2.1965678 -1.0667998 0.529744
H -2.2924402 0.032999408 -0.08925191
H 1.2524569 0.38771194 -1.7040129
H -0.17221063 1.2274945 -2.3115914
H -0.31119156 -0.44149825 -1.7911915
H 0.31740704 0.61254615 1.9021051
H 0.39758524 1.9507538 -0.023672678
H 1.2167001 -1.6982191 1.7237735
H 0.9878419 -1.6933937 -0.0142791355
H 2.1868513 -0.6108712 0.72789514
