15

C -1.6470767 0.6805119 0.18120056
C -0.45728675 0.23045328 0.99461496
O 0.634481 1.1903272 1.0327936
C 1.41389 0.33462453 0.24047926
N 0.21563248 -1.4494672 -0.9707177
C 0.506465 -0.78948617 0.37524676
N 2.4549735 0.58787763 -0.43346354
H -1.3356245 0.9424511 -0.85329044
H 2.7553382 1.5356334 -0.31074184
H -2.0794055 1.5800983 0.6159475
H 0.66244644 -1.0117095 -1.7639174
H 0.7675314 -2.010473 -0.14950296
H -0.7182595 -1.7601084 -1.1316211
H -0.76217926 0.035107613 2.0445805
H -2.4109266 -0.09584073 0.12839186
