15

C -0.29181585 1.5238172 -0.62988234
C -0.25810352 -0.38508645 1.1428834
O 1.3245236 -0.26117587 -0.65160936
C 0.87245053 -1.5671244 -0.53853184
N 1.3576105 -2.5260336 -1.1825991
C 0.5168822 0.5499242 0.21713705
N -1.5051271 -0.04910256 1.436398
H 2.094203 -2.2707088 -1.828674
H 0.3720139 2.0767279 -1.2921444
H -1.9931133 -0.57669735 2.1295037
H -0.8225949 2.2595172 -0.00632346
H 0.16169228 -1.490277 0.74707294
H 1.249516 1.1136042 0.8047607
H -2.061349 0.60274684 0.8873733
H -1.0167878 0.99986833 -1.2353654
