15

C -1.6753095 0.36256582 0.19577448
C -0.39715204 1.089221 -0.103210256
O 0.07452644 0.791022 -1.4909436
C 0.8930582 0.38215294 0.50481886
N 0.9685441 -1.3896029 -1.1485634
C 0.88784766 -0.11076393 -0.93138015
N 0.8357963 -0.74975157 1.327854
H 1.6519912 -0.78625065 1.906538
H 1.6777017 1.1373849 0.70991987
H -1.5786623 -0.7053937 -0.0046985494
H -0.4007394 2.1824336 0.045341417
H 0.95212615 -1.6332097 0.07475602
H -2.4913626 0.77373964 -0.39228773
H -1.8925302 0.4755536 1.260009
H 0.49416438 -1.8191011 -1.9539278
