16

C 0.8003563 0.1917804 -1.3170815
C 0.22184427 0.99887115 1.0601022
C -1.5958921 0.21389994 -0.55379725
C 0.0022420203 -1.0921751 0.86531615
N 0.3560561 -0.10881331 1.8469248
C -0.13952124 0.08451368 -0.14080346
O 0.2951817 2.1778755 1.2961671
H -2.2796137 0.14305893 0.30871925
H -1.7671146 1.1929456 -1.016195
H 1.8532947 0.12083779 -1.0015564
H 1.6026119 -1.6775109 0.34022096
H -1.8698205 -0.56500787 -1.269579
H 0.44792405 -0.18479733 2.837082
H 0.80272496 -2.0256214 0.6199021
H 0.6480292 1.1455207 -1.8369403
H 0.6216969 -0.61537796 -2.0384817
