16

C 0.58509266 1.8806864 0.38114503
C 0.35364786 -0.6109217 1.164485
C 0.74688375 -0.07995556 -1.3322192
C -1.0045878 -1.2311622 -0.88980997
C -0.87094843 -0.38147333 0.3427421
C 0.38112175 0.4232989 0.069651745
H 1.65058 2.1349156 0.44108036
H -0.35154822 -0.7214511 -1.7704164
H -0.78162557 -2.2940335 -0.78067964
H 0.9348119 -1.5350779 1.0482444
H 0.15409803 2.5204833 -0.3923269
H -1.9637262 -1.1177628 -1.4040016
H 1.464089 -0.9201211 -1.2325773
H -1.763868 0.02763875 0.80323106
H 0.13545178 2.144895 1.3583018
H 0.3305271 -0.2399585 2.1931496
