16

C -0.84935987 -0.027801318 1.8186231
C 0.2810112 -0.33273143 0.9672797
O 1.5512837 0.7481123 -0.881236
C -0.81675404 1.1555599 -0.96607065
C 0.481798 0.99349886 -0.2099308
C 0.14674446 -1.5655607 0.24249162
N -1.7271945 0.24150555 2.507765
H -0.7761877 -1.7731377 -0.27331737
H 1.410904 -0.72553265 -1.1853218
H -0.7106381 2.0630522 -1.5940472
H -0.9547084 0.3045264 -1.6470417
H 0.72721654 -2.4393501 0.543679
H -1.6958708 1.2722846 -0.3374508
H 1.2283411 -0.2820453 1.5205901
H 0.6200645 1.8240684 0.53597367
H 1.0833501 -1.4564488 -1.0419859
