16

C -1.5427078 1.5042365 0.5374228
C -0.61715776 0.44109792 -0.022173693
C 0.7606202 0.55978763 0.20131682
C 1.6141238 -0.61556816 0.5853635
C 1.2598802 -1.3907224 -0.5962435
C -1.1060451 -0.6356278 -0.73701155
H -2.590529 1.2666966 0.33194125
H -1.419782 1.6462542 1.6164278
H -1.3271813 2.4670553 0.05608621
H 1.2263688 1.5492766 0.22043309
H 2.667079 -0.31568313 0.6114167
H 1.344869 -1.0776099 1.5403688
H 1.7260196 -1.1324039 -1.5410498
H 0.77942336 -2.3585238 -0.53772795
H -2.1342413 -0.97937137 -0.6013093
H -0.640739 -0.92889404 -1.6652613
