15

C 0.9336379 -0.9253758 -1.1156479
C -0.31179357 -0.34321198 -0.54172975
O -0.42979625 -0.9770151 1.6672773
C -0.43050936 1.1453791 -0.34897846
N 0.6554905 1.5640175 0.5232503
C -1.4250088 -1.1136767 -0.32501894
N -1.9549848 -1.6723669 0.5934972
H 1.0333799 -1.976653 -0.8377107
H 1.788124 -0.34901935 -0.7548442
H 0.9025054 -0.8519013 -2.2108116
H -0.12988897 -1.1814195 2.5757198
H -1.4395288 1.3743544 0.021624213
H -0.30808136 1.6343932 -1.3264716
H 0.4938545 1.1034768 1.4183565
H 0.6225997 2.5690186 0.6614878
