15

C -1.437339 -1.5583575 0.10650879
C -0.5292319 -0.733596 -0.75537777
O -0.9906927 0.5254001 -1.20685
C -0.08399408 0.64392567 -0.11450964
N -0.3281249 1.1207919 1.1145502
C 1.3163983 0.78807414 -0.5143445
N 2.0711598 1.214301 0.4475972
H -1.5881566 -1.0455831 1.0647409
H -0.9843367 -2.5363631 0.29899725
H -2.4087918 -1.7149649 -0.37516236
H 0.044416606 -1.2720845 -1.51528
H -1.3170233 1.2674521 1.2705874
H 1.709187 0.5208248 -1.4902867
H 3.0744896 1.3131058 0.40360308
H 1.4520396 1.4670737 1.2652262
