16

C 1.0861908 1.1941187 0.17304257
C 0.02371627 0.0869768 0.29821897
C 0.67066777 -1.2999384 0.31320596
C -0.86870897 0.24926022 -0.9482344
O -0.35808906 -0.08568691 -2.11453
C -0.7942399 0.29655352 1.503551
N -1.4629748 0.45997998 2.4336863
H 1.6239043 1.057414 -0.76899344
H 0.6296127 2.1889884 0.18175447
H 1.7923851 1.1309361 1.0053796
H 1.3822709 -1.3841664 1.1389791
H 1.192078 -1.4503503 -0.6352728
H -0.085041694 -2.0847805 0.43120807
H -1.8790026 -0.70673686 -0.643002
H -1.5385436 1.1280129 -0.8819408
H -1.4142257 -0.78058165 -1.4870526
