16

C -0.51546544 -0.17673427 1.2193007
C 0.22995806 -1.0074972 -0.024288194
C -0.86809576 -1.391711 -0.8404376
C -0.7542639 1.0403558 0.5265469
C 0.42013052 1.4615374 -0.28506655
C 1.2070926 0.14436918 -0.44840503
H 0.30734202 -0.20730019 1.9490912
H -1.3916899 -0.6809346 1.6362315
H 0.85048985 -1.8748208 0.26102883
H -1.7916833 -0.82426876 -0.8342205
H -0.8304858 -2.2861307 -1.4589287
H -1.6982716 1.5740753 0.54087394
H 1.0604043 2.1916282 0.23748538
H 0.12471568 1.9310443 -1.2297783
H 2.0788498 0.11929143 0.22016671
H 1.570973 -0.012904214 -1.4696003
