16

C -0.034932964 1.643252 0.3964319
C 0.7728733 0.38089508 0.19414133
O 1.6600015 0.05510683 1.1172653
C 0.034365743 -0.8192688 -0.44028977
C -0.8642796 -1.4455645 0.63589925
C -0.71903646 -0.44529003 -1.6423973
N -1.3115354 -0.122535735 -2.582275
H -0.6276885 1.920479 -0.4795755
H 0.63112646 2.4580333 0.68512154
H -0.7008093 1.4453596 1.244511
H 1.5630689 0.77861404 -0.9560848
H 2.0255656 0.50068796 -0.15122432
H 0.80531156 -1.5438266 -0.72185713
H -1.2776337 -2.392055 0.27956483
H -1.6973108 -0.7848539 0.89355534
H -0.25908664 -1.6290331 1.5272136
