16

C -0.02240521 0.5135157 2.1580238
C -0.110201836 0.08564855 0.7217344
C -1.1670868 0.3447894 -0.15082096
C -0.7841374 -0.024655106 -1.4514003
C 0.31817704 -1.045983 -1.2874734
C 0.94123 -0.4605612 -0.042444233
H 0.79775417 1.2255956 2.305363
H -0.9480428 0.9982971 2.4839609
H 0.16200407 -0.33929998 2.8209264
H -2.0583146 0.9100249 0.10638279
H -1.4439399 0.009241981 -2.3140996
H 0.4305299 0.98108286 -1.5690235
H -0.124046504 -2.024196 -1.0543487
H 0.992888 -1.140434 -2.1417472
H 1.1456125 0.7955095 -0.973238
H 1.8699795 -0.82857627 0.38820496
