15

C -0.7767839 -1.4384562 0.6727908
C 0.5422989 -1.0046828 0.07193488
O 0.4516735 -0.89222044 -1.3857522
C 0.48743138 0.48775023 -1.2755504
N 0.1313185 1.3839896 -2.0945935
C 0.8902893 0.48039418 0.12655643
N 0.07097764 1.5081463 0.94505733
H -1.5814787 -0.75472784 0.3779125
H -0.7125422 -1.4549041 1.7678196
H -1.0428927 -2.4440908 0.33413872
H 1.3534464 -1.6915394 0.33473027
H -0.1871292 0.9659585 -2.9684858
H 1.1938604 1.6766282 0.73310953
H -0.716597 1.9334058 0.45183095
H -0.10387238 1.2443486 1.9085009
