16

C -0.98737633 1.6705836 0.49386042
C -0.7539021 0.31578374 -0.14217518
O -0.9095143 0.36370355 -1.550643
C 0.7186618 -0.18447274 -0.08710454
C 1.1962941 -1.0840086 1.0416142
C 0.49694893 -0.85203445 -1.3975312
N 0.21254407 -1.7039423 -2.1912475
H -0.8193805 1.637927 1.5771109
H -2.0186954 1.9855219 0.3098026
H -0.31941515 2.4145935 0.04762122
H -1.4098598 -0.44124907 0.3231576
H -0.7362536 -0.8821979 -2.1884744
H 1.3767326 0.6787808 -0.23512901
H 2.140235 -1.5769314 0.79000586
H 0.453077 -1.8557842 1.2653754
H 1.3599044 -0.48627347 1.9437567
