16

C -0.05958646 1.4658248 0.52784
C 0.14560342 0.102087185 -0.11954941
C 1.4363217 0.046524227 -0.93432546
C -0.0608468 -1.1847055 0.7267494
N -1.2005938 -1.4808025 -0.014371554
C -1.0649339 -0.42633992 -0.91980374
O -1.6222355 -0.16797532 -1.9507476
H -0.018638764 2.2490535 -0.23749572
H 0.7265006 1.6671276 1.2636167
H -1.0293704 1.5258943 1.0333133
H 2.2982092 0.27475232 -0.29831502
H 1.396342 0.77977794 -1.7463927
H 1.5920006 -0.9443436 -1.3731828
H -0.12682724 -1.1267775 1.9715965
H -0.6987885 -0.42896533 2.156756
H -1.7131562 -2.351132 -0.085687794
