15

C 1.2656808 1.1314191 0.940847
C 0.18145321 0.872023 -0.09006337
O 0.71658087 0.31807184 -1.2963701
C -0.10492407 -0.85058933 -1.2668378
N 0.076374754 -1.9500817 -1.9059429
C -0.5783171 -0.38175803 0.22370458
N -1.573572 -0.6178272 1.064431
H 1.8184495 0.208965 1.141333
H 0.833644 1.5035224 1.8763592
H 1.9639212 1.8790174 0.5529438
H -0.38573447 1.7895603 -0.30471575
H 1.0337052 -2.000003 -2.2452319
H -1.1922172 -0.41907698 -1.3304846
H -2.2381377 0.09040926 1.3528966
H -1.8169069 -1.5736521 1.2871318
