15

O 0.568581 -1.3521428 2.664895
C 0.42381728 -0.77450156 1.5773853
N 1.0108223 -1.5382247 0.64083135
C 0.54639983 -0.54413 -1.366334
C -0.70482457 0.20907763 -0.97456634
C -0.44814172 1.14689 0.2028686
N -0.24567853 0.39983234 1.4286251
H 1.2453402 -0.8500746 -0.45871833
H 1.271331 0.09091366 -1.8908896
H 0.37191123 -1.4665512 -1.9183776
H -1.5079769 -0.48554292 -0.7084757
H -1.0457386 0.79927254 -1.8337611
H -1.311094 1.8020458 0.35488215
H 0.41514146 1.7926041 -0.020124746
H -0.58988994 0.77053195 2.3017597
