16

N 0.018864146 -1.6625732 2.0836983
C 0.2900331 -0.76461375 1.2443421
C 0.7561189 -1.0280828 -0.15685098
C -0.082278706 -0.30801573 -1.2250484
C -0.10378497 1.20919 -1.0973284
C -0.7388539 1.3365437 0.97729313
O 0.24043696 0.59219193 1.5613669
H -0.25531298 -1.2310154 2.9692712
H 1.8020298 -0.69961315 -0.22909667
H 0.7315551 -2.1083417 -0.31733602
H -1.106846 -0.6985419 -1.2046598
H 0.32658294 -0.56781226 -2.2110898
H 0.8904713 1.6408979 -1.2622551
H -0.8303079 1.66603 -1.7753665
H -1.5937676 0.703168 0.68940973
H -0.34494033 1.9205884 -0.0463495
