16

C 2.3562272 -0.70782274 0.121051446
O 1.1931974 -0.3309759 -0.35238245
C 0.3992863 0.50942 0.25742272
C -0.917584 0.7724499 -0.4290318
C -1.4917849 -0.47616535 -1.112267
C -1.8599355 1.3032333 0.57114285
N -2.5997899 1.7249081 1.3537062
H 2.8469152 -1.4566809 -0.48606873
H 1.332391 -1.1212703 1.728241
H 2.925744 0.003064528 0.7124243
H 0.8551516 1.2777336 0.8786072
H 0.64707595 -0.71097094 1.7897409
H -0.8013071 1.563854 -1.1876802
H -2.4498322 -0.24616162 -1.585605
H -0.7967255 -0.8287359 -1.8780189
H -1.6390295 -1.2758796 -0.3812825
