16

C 0.61961454 1.3076617 -1.1033436
C -0.14649886 0.8017037 0.08605787
N -1.5941169 0.8282838 0.040731344
C -1.6289424 -0.45203125 0.5709008
O -2.534108 -1.2189764 0.79058266
C -0.088992976 -0.5860115 0.7312136
C 0.63082516 -1.6950638 -0.015254547
H 0.448768 0.58198845 -1.9050119
H 1.6942835 1.3976725 -0.9206262
H 0.20514062 2.2649076 -1.4304913
H 0.34007505 1.6435087 1.0400755
H -0.5821066 1.6627653 0.922473
H 0.2196208 -0.56253326 1.7825667
H 0.3095381 -1.7566977 -1.0600544
H 0.38823485 -2.6510055 0.45813778
H 1.7186652 -1.5661724 0.0120426845
