15

C -0.4428952 1.3704871 -1.5936128
N 0.49477178 0.42450738 -1.0077955
C -0.11802628 -0.57150227 -0.1835749
C 0.92075163 -1.292805 0.70814747
O 0.94215715 -0.41458797 1.8125012
C -0.78598684 -0.072471075 1.090356
N -1.4686618 -0.05502974 2.0736997
H -1.0498918 1.914491 -0.849429
H 0.109076895 2.101593 -2.190016
H -1.1241585 0.8373221 -2.2657666
H 1.1945932 0.9106765 -0.45281282
H -0.82036036 -1.1776258 -0.76902866
H 1.8876562 -1.3276848 0.19103922
H 0.60388047 -2.317846 0.9562089
H -0.3429064 -0.32952464 2.480084
