16

C -0.819854 -1.8478231 0.4316633
C -0.9524957 -0.41588116 -0.035755668
C -0.18286176 0.6913567 0.68062663
C -0.15933982 1.6284891 -0.48401675
C 0.07993755 0.19960268 -0.93950427
N 1.2150376 -0.4118575 -1.262061
O 2.2077067 0.41071647 -1.158526
H -1.5147567 -2.043349 1.2552242
H 0.20004463 -2.057996 0.76745677
H -1.0538158 -2.54293 -0.38011715
H -1.9854066 -0.12961 -0.27209726
H -0.101843 0.84115815 1.7538168
H 1.4232855 0.6362516 0.80172145
H 0.665801 2.3333323 -0.5555387
H -1.1216292 2.0327532 -0.8083915
H 2.1001897 0.67578655 0.205499
