16

C 0.2904202 -1.9676676 0.26551932
C -0.097992286 -0.5089265 0.28101534
C -1.30616 0.0003091814 -0.45648825
C 0.068108015 0.43329886 -0.87881905
C 0.62793696 1.7027662 -0.26335698
C 0.41140935 0.3402086 1.4278827
H 0.018217554 -2.4337184 -0.68861663
H -0.21910831 -2.520813 1.0633459
H 1.3692578 -2.0771837 0.41622442
H -1.811159 -0.68652016 -1.1325132
H -1.9625733 0.7174085 0.035378035
H 0.44199455 0.10363869 -1.8454106
H 1.5791368 2.0125813 -0.7076493
H -0.05533258 2.5527508 -0.20212665
H -0.42391932 0.90989286 1.8759615
H 1.0697635 1.421974 0.8096533
