16

C -0.5984357 0.986635 0.418813
N 0.17828849 -0.07070388 1.1405913
C -0.49286 -1.3108395 1.4280075
C -1.2732221 0.5264548 -0.84569347
C 0.51741797 1.1932974 -0.5356292
C 0.6042533 -0.29212275 -1.3465685
C 1.1353533 -0.04054532 0.028072026
H 1.312563 -0.065121174 -2.1367562
H -1.2059709 -1.1335083 2.2479
H 0.22913967 -2.0587344 1.7736157
H 0.93810433 2.0884335 -0.9758722
H 0.011644956 -1.1563363 -1.5934665
H -0.992392 1.8024831 1.015364
H 2.2022262 -0.20216696 0.22706673
H -1.5220232 1.4406723 -1.4122179
H -1.0440873 -1.7078972 0.56677353
