17

C -0.65462965 0.026175218 -0.49127665
O -0.5236077 0.10611258 -1.7441635
C 0.52566034 0.65429235 0.1744411
C 0.40047193 1.6627878 1.2329952
C -1.558311 -2.1718214 -0.25403777
C 1.8414683 0.49526313 -0.4772122
O -0.5227057 -1.3516691 0.18791099
H 0.33393046 2.6575873 0.76836574
H 2.090386 1.4308695 -1.0399926
H -1.5807513 0.45031652 -0.010977047
H 1.7890085 -0.31673282 -1.2226084
H -1.3733205 -3.176634 0.11176153
H 1.2584851 1.6731893 1.8962806
H -0.5303161 1.525707 1.804929
H 2.6217327 0.3538871 0.28978053
H -2.5267885 -1.8378005 0.12340073
H -1.5907127 -2.18153 -1.3495967
