17

C 2.1836958 1.3322735 -0.12010809
C -1.2987084 -1.624803 0.5513531
C -0.49627858 -0.40991148 0.13900225
C -1.2876104 0.8530094 -0.06288549
O 1.4883012 1.7980355 -1.1794976
C 0.9253998 -0.34574902 0.4152538
O 0.49555302 -0.68148124 -0.8984308
H 1.3039349 1.1028584 -1.7995056
H -1.7907717 -1.471581 1.5121201
H 1.4002469 0.8644344 0.7526411
H -0.64183587 -2.4934604 0.6502356
H -2.0595388 -1.8568784 -0.1882742
H -0.6906092 1.6939132 -0.36844862
H 1.4513829 -1.1219492 0.9438956
H -1.8157555 1.1138295 0.8753871
H -2.0761929 0.6884158 -0.81666744
H 2.9087865 0.559044 -0.40607095
