17

C 0.15490307 0.11669077 -0.93750995
C 1.6273326 0.039727032 1.1106333
O -0.32166824 1.4869442 0.9922977
C -1.230646 -1.1077733 -0.19348407
C 0.70722896 0.88456905 0.24223611
C -1.1859614 0.22474365 -1.351336
O -1.6286043 -0.79097325 0.94521636
H -1.6330202 -1.8655237 -0.86439925
H -0.075564414 -1.4624925 -0.25241107
H -0.8921767 0.73823726 1.3086668
H 1.075621 -0.75866556 1.6101806
H 2.4376032 -0.41186693 0.5284463
H 1.277939 1.7115512 -0.20211098
H 2.0811658 0.66915846 1.875823
H -1.792415 1.0076785 -0.88711286
H 0.87547654 -0.39504865 -1.5924264
H -1.4772139 -0.086956255 -2.3327098
