17

C 0.24444546 0.3343194 -1.2615643
O -1.4262844 0.24579169 2.1725125
C 2.2756188 0.795596 -0.12933432
C -1.0768261 -0.65691876 1.154755
C -0.7270655 -0.80089945 -1.4160309
C -1.2884432 -0.104930975 -0.23845637
O 1.3227214 -0.15073462 -0.5661598
H 3.2493603 0.51128954 -0.5276327
H 2.3186777 0.7832952 0.96020883
H -1.3462095 -0.79276204 -2.3262124
H -2.2243607 0.4442665 -0.38279736
H -0.040421728 -1.0032902 1.2373422
H -0.30297568 -1.7891665 -1.2193578
H -1.7325304 -1.5307517 1.2992238
H -0.5091415 0.9736404 -0.463812
H 2.0173283 1.7971607 -0.46632433
H -0.75389284 0.9440946 2.17364
