17

C -0.10855214 -0.8724692 0.37709546
C -0.5755818 0.8760933 -1.2505682
O -0.49011788 1.0976583 1.1408851
C -0.14092004 -1.5337733 1.6955565
C 0.97252357 0.8659467 -1.3374307
C -0.95801675 0.32467788 0.1254451
O 1.526099 0.47720754 -0.0978143
H -0.85522354 -1.037605 2.3496869
H -0.983551 1.8968406 -1.3209574
H 1.0053167 0.9977059 0.59851134
H -1.0160053 0.29370782 -2.0801442
H 0.853879 -1.5112008 2.1661322
H 1.3427774 0.15021504 -2.0740497
H 1.367388 1.8646554 -1.6070336
H -0.39093965 -2.584786 1.5380887
H -2.0328884 0.06841454 0.19503333
H 0.4838131 -1.3732891 -0.41843596
