17

C -0.50066274 1.2223064 -0.5074063
C 0.25100353 -1.0515995 -0.16747525
C -1.433905 -0.07385736 1.4871664
C 1.2741944 -0.62092996 -1.2468778
O 0.7445784 0.92703545 1.1305574
C -0.2738162 0.19633073 0.5388788
O 1.4710695 0.787807 -1.1770552
H -1.8127818 0.87841 1.8973756
H -0.6817131 1.0488117 -1.5674347
H 0.92116463 -0.8351923 -2.2537754
H 1.5939379 0.97692686 -0.21827328
H 0.70584196 -1.6951342 0.59376854
H 2.2268572 -1.1220076 -1.1072828
H -0.56717575 -1.6222044 -0.63841116
H -2.2599707 -0.61127967 1.0338738
H -1.0508595 -0.647799 2.3538218
H -0.60776305 2.2423759 -0.15145013
