16

C -0.40002516 -1.6374418 0.62742835
C 1.6282803 -1.3671542 0.87145
C -0.5642224 1.6843449 -0.62135917
C -0.6006905 3.146559 -0.5919722
C -0.58765584 -0.97678757 -0.7140114
C -0.5484739 0.4858549 -0.6975176
N 0.6802964 -2.3456922 0.92192
H 1.5406485 -0.5434998 1.5724385
H 0.74127525 -3.2951496 1.3092647
H -1.2606 -1.699122 1.2973043
H 0.19050314 -1.3598464 -1.3816518
H -1.4468458 3.5403187 -1.1780429
H 2.563263 -1.5050421 0.3205632
H 0.31248817 3.5858715 -1.0311567
H -1.546564 -1.2705857 -1.1384608
H -0.7016773 3.5573723 0.4338038
