16

C -1.1749954 0.39761332 -0.27121896
C -0.40185672 0.1384002 -1.255122
C 1.7768757 -0.28301334 0.19957973
C 1.0048728 -0.08661494 1.3017213
C 0.8612858 -0.1928841 -1.659103
C -2.552793 0.7692218 0.103929766
N 1.3382816 -1.4351039 0.8945034
H -3.1443808 0.8560307 -0.810017
H -0.38640994 0.21014054 0.6900148
H 1.4651237 0.5812692 -2.1425607
H 1.0019779 0.4296292 2.248802
H -2.582794 1.7435826 0.61981034
H -3.0246022 0.011866318 0.7437099
H 2.0416765 -1.9400296 1.4763494
H 2.7497568 -0.010544248 -0.13503245
H 1.0279809 -1.1895638 -2.0053666
