16

C -0.77711815 -0.76843697 -1.6993406
C -0.34294674 0.076909035 2.399926
C 1.0641421 0.81740063 -2.271876
C 0.20271249 0.06702745 -1.2704412
C -0.40460697 -0.29286444 0.94699794
C -1.2154148 -1.2318137 0.39016917
N 0.44244307 0.3534493 0.06266201
H -0.88107425 -1.7664628 -0.5380679
H 1.196663 0.9189419 0.37409335
H 0.64216584 -0.10343385 2.8281705
H 0.92359203 1.896829 -2.1935306
H 0.7117615 0.51466614 -3.2797143
H -2.0308557 -1.6855406 0.9137735
H -1.0564172 -0.5101845 2.9527895
H 2.120059 0.5804515 -2.1761422
H -0.5951054 1.1330616 2.5605304
