17

C 0.98034716 0.13808568 1.1229956
O -0.5593852 -0.5461639 -0.7322897
C 0.08576659 1.2860664 1.3507068
C 0.9903 1.7324339 0.21479282
C -1.0824317 -1.658346 -1.4407575
C 0.45385075 -0.9200105 0.19799514
O -1.292679 1.2429584 1.0832939
H 0.4940829 1.7778345 -0.75253063
H -1.4435408 0.63970304 0.38211662
H 1.8159047 0.8870367 0.23487096
H -0.2696775 -2.1788192 -2.001768
H -1.8162407 -1.2952584 -2.1115541
H 1.2806368 -1.3925086 -0.36421993
H -1.5274123 -2.3970711 -0.7595186
H 0.2024608 1.8231057 2.2919981
H 0.04445711 -1.7005032 0.8422068
H 1.6435603 2.561457 0.44166172
