17

O -0.65746015 -0.19163921 1.0524725
C 0.75533736 -0.51954997 -0.8706229
C 0.2129428 0.38188007 0.19433565
C 0.9991932 1.4685729 0.85465294
C -1.2192178 -1.3139515 0.6300252
C -0.5907669 -0.6922722 -1.5705513
O 0.1862027 2.3753982 1.5943848
H -0.9167521 0.3302397 -0.8020072
H -2.1941113 -1.4932433 1.0770345
H 1.4729826 2.0627341 0.084570505
H -0.58320147 -0.060959533 -2.4806538
H 1.4930315 0.0028480703 -1.4837664
H 1.7908903 1.0655552 1.4965905
H 1.2412394 -1.451173 -0.5010674
H -0.42404377 1.851046 2.1101992
H -1.0083888 -1.6551561 -1.819668
H -0.55787796 -2.1603293 0.43407142
