16

C -0.59142363 0.7937687 1.841418
C 0.41782704 -0.13699132 0.062000528
C 1.3819189 -1.052211 -0.62269086
C -0.56012815 1.8559948 0.9782836
C 0.11914305 1.2637817 -0.15245745
C -1.0856512 0.12470282 -1.009812
N 0.008150981 -0.37851357 1.3456146
H -0.81112915 -0.6463737 -1.7381754
H -0.011116642 -1.2765186 1.7685792
H 0.52607876 1.7867209 -1.0014912
H 1.5254563 -0.73727566 -1.657284
H -1.8768488 -0.19235784 -0.3438
H -1.4129628 0.990977 -1.5778679
H -1.0222931 0.74001837 2.8378282
H 1.0303229 -2.1072092 -0.61935216
H 2.3626554 -1.0285131 -0.110792734
