17

C -0.07643905 -2.1482208 0.81286883
C 0.21146017 1.2464263 0.27162462
C 0.6962689 -0.85980266 0.87974685
O -0.2390543 0.25716627 1.0660208
C 1.3724589 0.85944784 -0.45706207
C -1.3436341 1.177523 -1.2255323
O 1.3902147 -0.5824664 -0.31149533
H -1.3494914 2.0454648 -1.9143841
H 2.2848463 1.397188 -0.47276583
H -0.6068614 -2.319406 1.7456664
H -0.791626 -2.1170318 -0.025987433
H 0.0976107 1.0961066 -1.1062981
H -1.4819872 0.22665526 -1.7338469
H -0.07425293 2.2569652 0.56022227
H 0.6248603 -2.9807215 0.6519514
H -2.1113653 1.277622 -0.47196752
H 1.396992 -0.8329168 1.7312386
