16

C -1.1636137 0.45002443 0.32025817
C -0.04410602 1.6451187 -0.7909138
C 0.0783114 -0.39313233 0.17757574
C 0.26009122 -1.5035615 1.1854879
C 0.60784894 -0.417509 -1.2292421
N -1.3792694 1.272987 -0.9075974
C 0.18159449 1.0646381 0.6040343
H -0.57119554 0.70619863 -1.6123056
H 0.24715394 -1.2158026 -1.8853027
H 1.3181838 -1.7052015 1.3563672
H 0.4619191 2.4158087 -1.3529816
H -0.18224446 -2.4220743 0.824993
H 1.6961508 -0.37323862 -1.268922
H -1.9888752 0.25445825 0.99060607
H -0.1991788 -1.2718678 2.1499867
H 0.67722917 1.4931536 1.4379557
