17

O -0.4310178 -1.0458275 -0.160583
C 0.23957221 -0.8616164 -1.3389014
C -0.41154596 -0.0062313336 0.6677109
C -0.54731923 -0.39998466 2.1083496
C 0.2886811 0.5760947 -1.8144037
C 1.2630857 1.0119792 -0.7563046
O -1.8886868 -0.60856783 2.4688704
H -0.9081017 0.9118273 0.3730919
H -2.2322836 -1.3474138 1.9500659
H 1.0245442 1.9007025 -0.14913043
H 0.036058057 -1.7241954 -2.0057638
H -0.20273152 0.43818507 2.7370167
H 1.4070128 -0.3668428 -0.61775464
H 2.2743998 1.0988121 -1.1502525
H 0.08433619 -1.28639 2.334247
H -0.6904819 1.0820823 -1.8153182
H 0.69447845 0.62738657 -2.8309395
