17

O -1.0412087 0.84550816 -0.6168642
C 1.2084653 0.70640063 0.66176397
C 0.07946363 0.41219237 -1.3193703
C -1.0085009 0.4022242 0.62780875
C 1.3737644 1.0490412 -0.7346442
C -1.0335737 -1.0367764 0.9548411
O -0.57024986 -1.9085466 -0.21051745
H -2.051195 -1.3504808 1.2169721
H -0.06741135 0.49041253 -2.3831394
H -1.3039188 -2.187141 -0.77488613
H 1.4245012 2.1225061 -0.9234607
H 2.2275968 0.5734005 -1.2337886
H -0.049704697 -1.1361333 -0.8383307
H 1.6883576 -0.19936396 1.0366988
H 1.0339525 1.4471148 1.421677
H -0.3752807 -1.2820657 1.7827129
H -1.5350574 1.0517073 1.3325273
