16

C -1.5448825 0.6391194 -0.8986558
N -0.19553825 0.11447522 -0.98948956
C 0.15305044 -1.1208268 -0.2857712
C 1.1201862 0.12870921 0.99448586
C 0.88074774 0.8397921 -0.3260944
C 1.711866 -0.7981257 -0.048025254
C -0.03168599 -0.83909583 1.2056259
H 0.30808243 -1.7041045 1.7878904
H -0.19554424 -2.025071 -0.7581035
H -2.2333708 -0.065989174 -1.3415918
H -1.8673713 0.82811666 0.14336184
H -1.0048848 -0.5041 1.5536455
H 1.8055211 0.3875624 -0.96596307
H -1.601841 1.570881 -1.4387426
H 1.6886525 0.6374941 1.7735573
H 1.0070127 1.9111631 -0.40612966
