17

C 1.3011196 -0.5810846 0.25383854
C -0.4884965 0.28635833 -0.91456175
O -2.38625 1.4330759 -1.8604072
C 2.4717731 -0.0499468 1.0567902
C -1.2281177 1.4032134 -1.4758662
C -2.0679753 -0.5522551 0.20394352
O 0.46505406 0.5235755 -0.04969466
H 3.058007 0.6379858 0.46702236
H -1.7280687 -0.05772007 1.1011579
H 0.7096753 -1.3110689 0.8516016
H 1.6171988 -1.0789106 -0.66378766
H 3.1300426 -0.8936676 1.3575156
H -0.55862314 2.2516048 -1.7056625
H 2.121764 0.4400622 1.9675422
H -2.9607444 -0.10408484 -0.2375233
H -1.2230853 -0.71610105 -0.7460217
H -2.2332733 -1.6310364 0.39411288
