17

C 0.037630167 -1.0551364 1.1119336
C -0.24788931 0.20960584 -0.91984516
C 0.42956352 -0.8282968 -1.7834853
C 0.33027452 1.3914094 -0.5610107
O -1.6049237 0.15120739 -0.9162216
C 0.14622967 0.057879448 1.8875341
O -0.46792755 1.2942681 1.4323345
H -0.21288972 2.3142638 -0.51297975
H 0.07824843 -1.8395941 -1.5602477
H 0.8545966 -1.7861238 1.2234054
H -1.8526059 0.690273 -0.13689451
H 1.0272845 0.24843656 2.4723594
H 1.511788 -0.7770599 -1.6299505
H 0.22222602 -0.61180186 -2.8182802
H -0.78497124 0.51040804 2.5056267
H 1.4233596 1.4878389 -0.52515423
H -0.88999385 -1.4575776 0.730876
