17

C -0.960559 0.68775755 0.053808548
C -1.1247462 -1.0927278 -0.9813849
O 1.1006786 -0.3958714 -0.3906348
C 0.5284444 0.813788 0.116622455
C 1.1290227 1.0171243 1.51312
C 0.2886458 -0.88040787 -1.455441
O -1.3489865 -0.6518218 0.6967014
H 0.8152762 1.6578927 -0.522299
H -1.4657675 1.4503337 0.6797332
H -1.92698 -0.68544203 -1.6061573
H 0.79203415 1.9875754 1.9102418
H -0.57614875 -1.065425 1.1057599
H 0.7474162 -1.8196044 -1.7750999
H 2.2215629 1.0256313 1.4667872
H 0.3036667 -0.14166875 -2.2819457
H -1.3322978 -2.146091 -0.72929513
H 0.8087374 0.23895673 2.199483
