15

O 0.25523582 -1.0868503 -2.5021071
C -1.2222532 0.02677859 0.6595578
C 1.2385068 0.09364724 0.82418764
C 0.22796775 -0.62320757 -1.3702335
C 0.020013012 0.43815967 1.3776672
C 1.3575317 -0.568741 -0.4929978
C -1.0490239 0.037386853 -0.85705405
H 2.3514805 -0.8337956 -0.87168497
H -1.9030633 -0.42381462 -1.3784691
H -2.1095865 0.6114506 0.95668334
H 1.1042382 1.0476263 0.1476415
H -1.0128968 1.0844402 -1.1979434
H -0.009648985 0.9812017 2.3196335
H 2.16348 0.22272588 1.4246503
H -1.4119811 -1.007008 0.96046853
