16

C -1.3138342 0.9176078 1.2145166
C -0.40548617 0.08808059 0.3929177
C 0.34727645 0.5249779 -0.7990998
C -0.07286446 -0.918242 -1.2557067
C -0.41252622 -1.3276892 0.26348138
N 0.68691295 -1.8478568 -0.4814501
C 1.7331166 0.53042173 -0.2502007
H -0.7941747 1.8234744 1.538412
H 2.5615282 0.402879 -0.9335285
H -0.06347016 1.3162678 -1.4499141
H -1.1500187 -1.9915967 0.7043184
H -1.6592213 0.3707353 2.1073554
H 1.5410997 -1.1698616 -0.12712798
H 1.9023281 1.2643352 0.5213342
H -0.7172568 -1.2167089 -2.0772185
H -2.1834092 1.2331754 0.6319103
