17

O 1.0052972 -0.77611107 1.8456001
C -0.20877327 -0.02324156 1.9635073
C 0.1375109 0.58020055 -0.4635348
C 0.9299868 -0.4096769 -1.2767627
C -0.32567558 0.92930406 -1.8944365
O 0.6874604 0.0414687 -2.4992495
C -0.74865204 0.22508782 0.6025792
H -0.43927217 -1.8262111 -0.7414524
H 1.3728913 -0.87092626 2.7081382
H -1.7930725 0.5090859 0.5269879
H 0.021628084 0.91710216 2.4996638
H -0.209143 1.9406059 -2.2846844
H -1.3073152 0.52111787 -2.1183882
H 0.924066 1.3215703 -0.17075872
H -0.8727141 -1.444614 -0.18603358
H -0.9386881 -0.5693867 2.5703135
H 1.764465 -1.0653753 -1.0814894
