16

C -0.6144034 -2.3409493 0.02067079
C -0.5004596 -0.88493484 0.36577964
C -0.87930346 -0.30123457 1.5201933
C 0.118069 1.6528195 1.1590772
C 0.42007506 1.2152495 -0.083869234
C 1.1836511 2.1318924 -0.9997859
N 0.13540661 -0.067348085 -0.53119195
H 0.37058923 -2.7815661 -0.16923845
H -1.0918243 -2.8916132 0.83361995
H -1.2237742 -2.4777906 -0.8810556
H -1.2188239 -0.84022045 2.396887
H -1.093575 0.79978496 1.5631007
H 0.6113981 2.345354 -1.9107151
H 1.3824298 3.0811625 -0.49670827
H 2.1430314 1.6860893 -1.2879413
H 0.25751373 -0.3266944 -1.4988227
