16

C 1.6022522 -1.0374717 -0.6676967
N 0.2585705 -0.62482554 -1.0557231
C -0.7945538 -0.69226354 -0.07451991
C -0.70133585 0.19358848 1.1585175
C 0.2601589 1.2186038 0.5194528
C -0.231054 0.6875389 -0.8345525
C -1.9457567 0.74597096 0.4894887
H 1.8204972 -0.9226853 0.40134355
H 2.3320436 -0.4639168 -1.248374
H 1.7118012 -2.0946267 -0.9263003
H -1.5719016 -1.4264756 -0.25239912
H -0.6515111 -0.19491997 2.1776881
H 1.3362811 1.083231 0.66616523
H -0.03414136 2.2427185 0.73798585
H -0.60534763 1.2592088 -1.6755931
H -2.786003 0.026324732 0.58451736
