17

C 1.7013131 -0.6738442 -1.0636208
C 0.16475639 -1.2517298 0.17735092
C 0.58005375 -0.65858674 1.450672
O -0.012155416 0.65154415 1.3004831
C -1.1518431 0.503482 0.53494614
C -1.4611164 1.7464199 -0.2562079
O -0.8522525 -0.61220455 -0.38722613
H 1.2097979 -1.1669255 -1.9037236
H 2.7291005 -1.0516372 -0.9925228
H 1.6834092 0.40946048 -1.2158905
H 0.27486095 -2.3084877 -0.047763184
H 1.5190461 -0.7121157 0.27569103
H 0.22708042 -1.1933136 2.338612
H -2.0123587 0.14872481 1.12468
H -0.5927224 2.0180845 -0.86260855
H -2.3251495 1.5854409 -0.9064636
H -1.6818203 2.5656884 0.43359172
