16

C -0.45551544 1.9746798 1.7676243
C 0.020489154 0.8540571 0.90371615
C 1.1223481 0.4036926 0.43606907
C 1.7955613 -0.48081708 -0.31868932
C 0.021857526 -1.5343537 -1.0969906
C -1.1614101 -1.1433772 -0.64548665
N -0.66478246 -0.5184811 -1.918264
H -1.0170369 1.5916934 2.6267447
H -1.125108 2.633561 1.2043201
H 0.38157558 2.570458 2.1395102
H 2.3467774 -1.2909433 0.15740925
H 2.1338437 -0.18945737 -1.3114885
H 0.5817673 -2.4254415 -1.3359514
H -0.77847177 0.10672425 0.44517726
H -2.1052492 -1.5599141 -0.3296857
H -1.0966462 -0.99208045 -2.7240145
