15

O -0.9955197 -2.2211373 1.2589751
C -0.49550852 -1.2095516 0.7771823
C -0.24482164 -1.1154269 -0.73677856
C -0.42200628 0.30612323 -1.2857398
C 0.35032475 1.3142171 -0.50890726
C 0.50966066 1.0880253 0.8698644
C -0.032297097 -0.08573347 1.5447314
H 0.7814993 -1.4692253 -0.92659384
H -0.9175951 -1.8161805 -1.2363405
H -0.1957096 0.35206357 -2.3557198
H -1.4900666 0.5770911 -1.1705666
H 1.3836207 0.36323628 0.63763505
H 0.7608183 2.2068603 -0.9684471
H 0.91431355 1.8920871 1.484208
H 0.09328718 -0.18244895 2.6164966
