16

C -0.26266098 1.4938447 1.3337805
C -0.06664067 0.284972 0.50031495
C 1.2089741 0.007991629 -1.3732352
C -0.21402487 0.17614317 -0.9804243
C -0.81961447 -1.199839 -0.53837043
N 0.21663335 -2.0168502 -0.0826976
C -0.18873766 -1.0710974 0.9190711
H -1.2662773 1.9095248 1.1717217
H 0.44992232 2.25859 1.001554
H -0.11760012 1.2998449 2.4006763
H 1.8203721 0.8869666 -1.1751044
H 1.4033294 -0.43103474 -2.3557763
H -0.95057774 0.8185594 -1.4866602
H -1.8403335 -1.5337443 -0.6946741
H 1.0971758 -1.4806473 -0.55295426
H -0.46993995 -1.4032241 1.9127783
