17

C -1.6921676 -1.9609747 -0.789957
C -1.12473 -0.55835724 -0.82950187
O 0.1511204 -0.5795038 -0.17344788
C 0.8566144 0.546951 -0.30056244
C 0.43714833 1.6119922 1.5106312
C 2.2959983 0.4575342 -0.16877222
O 3.0610616 1.2478371 0.36075646
H -1.7888151 -2.3070636 0.24348001
H -2.6816587 -1.9809922 -1.2573533
H -1.0391284 -2.6550264 -1.3273851
H -0.9873458 -0.19254386 -1.8529018
H -1.7762487 0.14888473 -0.29661044
H 0.3581553 1.5747395 0.24911618
H 1.4646225 1.7943438 1.8170292
H -0.18700042 2.5067704 1.5969154
H -0.026423207 0.7467501 1.9809265
H 2.6787968 -0.4013411 -0.7623631
