17

O 1.4831307 -2.1127594 1.849325
C 0.6440671 -0.96432656 1.8580213
C 0.22993685 -0.53283155 0.48693973
C -1.4498248 0.8491116 -0.39140326
C -0.69519293 0.50959665 -1.6996028
C 0.6112202 0.9992418 -1.130281
O 1.1345435 0.20099857 -0.1473276
H 2.2776256 -1.8731862 1.3547986
H 1.1257544 -0.12190886 2.3741305
H -0.24471879 -1.2492477 2.4282231
H -0.3508046 -1.2392381 -0.101421185
H -2.0052352 1.7843431 -0.5275831
H -2.1299703 0.13020712 0.07023111
H -1.0106157 1.1271396 -2.546125
H -0.71860176 -0.5401266 -2.0196257
H -0.29764247 1.5461755 -0.15091315
H 1.3963283 1.486811 -1.7073865
