17

C -0.294029 -1.7184713 0.8194138
C 0.61876374 -0.49081114 0.84803474
O 1.726832 -0.63284 0.009845685
C -0.1584899 0.7884812 0.5602447
C 0.31228536 1.7327735 -0.37907752
C -0.6273537 0.658654 -1.2935529
O -0.011386341 -0.21845691 -1.9761752
H -1.149843 -1.6060677 1.4957219
H -0.651354 -1.873112 -0.20488216
H 0.27744946 -2.5995114 1.1217428
H 1.0061129 -0.35447973 1.8690536
H 1.3497895 -0.6887031 -0.9007836
H -1.3455139 0.20784454 -0.45541054
H -0.9516797 1.0543089 1.2611123
H 1.3286567 1.6115388 -0.7395802
H -0.072131306 2.7482474 -0.33743778
H -1.3581089 1.3806045 -1.69827
