16

C -0.86037046 -1.3424233 -0.9254635
C -0.33556202 -0.11006874 -0.250316
C -0.54903466 0.37152705 1.0979089
C -0.2665144 1.7844379 1.2438208
C 1.0873755 -0.5522391 0.84426636
C 0.06223922 2.088058 -0.057365194
N -0.0032752901 1.0048674 -0.95404416
H -0.17025355 -1.7115427 -1.6932039
H -1.0183535 -2.1401675 -0.19412118
H -1.8208454 -1.1229781 -1.401755
H -1.0321907 -0.2669592 1.836927
H 1.8294601 0.17797492 0.5271623
H 1.2413547 -1.539743 0.39656648
H 1.1510327 -0.67582136 1.9267331
H 0.36532608 3.041325 -0.4864948
H 0.31961158 0.99375254 -1.910621
