16

C 0.39949155 1.8059531 -0.48789954
N -0.5440196 0.70557463 -0.48505446
C -0.20544688 -0.5107541 -1.156829
C 0.5621442 -1.7324512 0.15847546
C 0.524412 -0.6736617 1.2782581
C -0.7917042 -0.062829934 0.7456981
C -0.8897036 -1.3558003 -0.115289435
H 1.4167846 1.5161512 -0.17971417
H 0.03823574 2.5885623 0.18660152
H 0.45424798 2.227142 -1.4968866
H -0.33060455 -0.6575506 -2.2295086
H 0.9450457 -0.8825377 -0.97794133
H 1.3980522 -0.048171494 1.4958171
H 0.2853475 -1.2704874 2.1673734
H -1.5349342 0.363562 1.4240997
H -1.7273488 -2.0127008 -0.3272004
