16

C -0.2582265 -0.93752146 1.5800122
C -0.27514076 -0.14418378 0.28970122
C -1.4667543 0.5710292 -0.24071647
C 0.2522139 -0.7325031 -0.9782013
C 1.1388923 0.2709782 -1.4520755
N 0.76557106 1.5910448 -1.0290624
C 0.98471797 0.7577414 0.067094505
H 0.72393817 -1.395475 1.768878
H -1.0070775 -1.7358855 1.5585364
H -0.4996342 -0.27840894 2.4220638
H -2.2667558 -0.08235338 -0.5822477
H -1.8266183 1.4262329 0.34064487
H 0.30999762 -1.783376 -1.2653975
H 1.9663686 0.12725127 -2.137464
H -0.37655738 1.5225028 -1.0843211
H 1.8350649 0.8229267 0.74255544
