17

C -0.03576932 -0.4294252 1.7914493
C -0.5290463 0.15151827 0.46961492
C 0.2543234 -0.7435687 -0.77064997
C 1.3915026 0.09213681 -1.0890143
O 1.5599407 0.62167966 -2.357174
C -1.9105506 0.40214014 0.38117024
O -0.09485675 1.4581641 0.24012935
H -0.43434277 -1.4384991 1.9503515
H 1.0580528 -0.48841912 1.7907991
H -0.3404316 0.21301998 2.6225152
H -0.4477586 -0.8577318 -1.6019336
H 0.47855544 -1.7164586 -0.33144313
H 2.359956 -0.13628632 -0.6478518
H 0.90142703 1.1898876 -0.3173144
H 0.69927 0.6447291 -2.7943854
H -2.6232653 0.09761912 1.1455628
H -2.287007 0.9394939 -0.48182574
