17

C 0.04391417 -2.4535751 0.042147793
O -0.16288804 -1.0637277 0.13395098
C 0.85786676 -0.30971518 -0.53540826
C 0.770277 1.183858 -0.4342289
C -0.97730196 1.708891 -0.41824034
C 0.04172759 1.7293702 0.72842544
O -0.25347534 0.98148406 1.868333
H 0.040493872 -2.7836976 -1.0070027
H -0.77415156 -2.943104 0.57490396
H 1.0003135 -2.7477658 0.49882442
H 1.8392789 -0.54871976 -0.090624265
H 0.8942498 -0.63581127 -1.5855469
H -0.23958215 1.4695369 -1.3394206
H -1.3146138 2.6817544 -0.7730101
H -1.7416317 0.9452781 -0.30355194
H 0.32232508 2.7299318 1.0560571
H -0.34680253 0.056012556 1.584391
