17

C -0.5720326 -1.992104 -1.130076
O -1.0753019 -0.8555237 -0.45129082
C -0.73177075 0.32509908 -1.0558573
C -1.067337 1.4521191 -0.10601296
C 0.3786385 1.2302496 0.18691745
C 0.7757213 0.47355872 1.425165
O 2.121226 0.03839593 1.3930438
H 0.5061908 -2.109189 -0.9436843
H -0.73554456 -1.9031427 -2.2085443
H -1.097617 -2.8640006 -0.7343495
H 0.5433601 0.4843924 -0.936085
H -1.3338746 2.4023113 -0.5642178
H -1.7504891 1.1637387 0.69371754
H 1.068572 2.011266 -0.13472863
H 0.6978123 1.1281954 2.2997513
H 0.07450751 -0.36188692 1.5718056
H 2.197939 -0.6234794 0.69444567
