17

C 1.0031245 -1.312052 -1.2956474
C 0.73868823 0.051691424 -0.6534691
O -0.58877873 0.42514545 -1.0639234
C -1.1192789 1.3357886 -0.12519619
C -1.1201952 0.68258125 1.2426227
C 0.82567877 0.17180935 0.8341829
O -0.18818983 -0.78215736 1.4708011
H 0.8098491 -1.2725995 -2.3718662
H 0.35585675 -2.0996342 -0.8874202
H 2.0439205 -1.6098355 -1.1351352
H 1.4689803 0.77449656 -1.057302
H -2.145224 1.5421965 -0.45760345
H -0.5352773 2.2654161 -0.09023391
H -0.88964605 1.3188728 2.0888393
H -2.0548477 0.120659 1.4080971
H 1.8159317 -0.08946724 1.2228454
H -0.4205922 -1.5229115 0.87040806
