17

C -0.3566109 -2.0430915 -1.0426415
C 0.27857822 -0.84128517 -0.46421608
O -0.5466542 1.1937969 -0.9917993
C 0.23363534 1.8963779 -0.028735686
C 0.5913861 0.9822196 1.1751115
C -0.028097449 -0.39910072 0.9176671
O -1.3870122 -0.33484775 0.7373682
H -0.946774 -1.7719616 -1.9258409
H -1.0132197 -2.5301824 -0.32150894
H 0.43799633 -2.7133398 -1.40112
H 1.0352194 -0.36265743 -1.0824405
H -0.3157412 2.7826192 0.3106064
H 1.1315231 2.2466774 -0.54859215
H 1.6777955 0.90748155 1.3151449
H 0.1601944 1.3677086 2.1034153
H 0.31059343 -1.1313851 1.6771394
H -1.2628123 0.7509702 -0.42955795
