17

O -1.3219283 -0.43328977 1.9695606
C -0.18443878 -1.1730871 1.5735108
C 0.28076681 -0.70387685 0.2280129
C 0.11448476 0.63258576 -0.22142434
C 1.2099413 1.5564327 -0.8963243
O 0.46566698 1.7481356 -2.0919147
C -0.2575662 0.610423 -1.6936418
H -1.5435979 -0.68722624 2.8729818
H -0.39564 -2.253259 1.5401154
H 0.63471115 -1.0316035 2.3052495
H -1.3452711 -0.9685429 -0.71777844
H 1.0271724 -1.3286281 -0.2588964
H -0.5717947 1.2254374 0.38595623
H 2.1370237 1.0066335 -1.0849729
H 1.39578 2.4945672 -0.36727524
H -1.6551551 -0.41645092 -1.2557945
H 0.00984472 -0.27825114 -2.2873647
