16

C 2.9417562 0.14208528 -1.5473317
C 1.8291147 -0.20421858 -0.66053325
C 0.9097684 -0.48988658 0.06568346
C -0.20311268 -0.8255616 0.9686152
C -1.1006514 0.33655393 1.3262414
C -2.3746836 0.4009561 -0.29672763
N -2.4239416 0.3481712 1.0605361
H 2.607819 0.21176788 -2.587828
H 3.7341163 -0.6121993 -1.497741
H 3.3794706 1.1067593 -1.2696892
H 0.22856896 -1.2445002 1.8929877
H -0.8207693 -1.6080875 0.51215684
H -0.68849254 1.0746896 2.0213559
H -2.9304054 -0.30884227 -0.9099103
H -1.8761017 1.2339796 -0.7730105
H -3.2124562 0.43833303 1.6951952
