17

O -0.6469842 2.7729294 0.18300836
C -0.7239646 1.5920843 0.9445963
C -0.1605771 0.3999948 0.2214139
C 0.102741316 -0.9467055 0.8463075
C 1.3421618 -1.1706144 -0.05217675
C -0.23551357 -0.7892704 -1.6999576
O -0.61271113 0.32037455 -1.0752456
H -0.9442622 2.5505152 -0.70915365
H -1.7639868 1.3854526 1.2578145
H -0.14090876 1.75412 1.8569455
H 1.1785842 0.15517825 -0.2923531
H -0.70640075 -1.6819996 0.74956083
H 0.35089147 -0.85733795 1.9088768
H 1.5029762 -2.1179028 -0.56874776
H 2.2475686 -0.95716727 0.5303448
H -0.59575963 -1.741625 -1.3214463
H -0.19385497 -0.66802603 -2.7797878
