17

C -0.45592695 -2.0162947 -0.060582023
C -0.054403357 -0.5815444 0.24777803
C 0.5437849 0.17295887 -0.95652014
C 0.66130453 1.6666268 -0.5670183
O 0.35734957 1.8516455 0.8167781
C -1.0800539 0.27093655 0.8833983
O 0.7693458 -0.45868376 1.3530148
H -1.1789736 -2.0828438 -0.8817579
H 0.44830945 -2.5708487 -0.33475998
H -0.8766432 -2.4852293 0.8338689
H -0.07014521 0.047147594 -1.8571435
H 1.5252389 -0.26885858 -1.15399
H -0.05387885 2.2807753 -1.1239846
H 1.6639377 2.0597286 -0.7687001
H 0.8560792 1.094516 1.2806621
H -1.4157774 -0.0639462 1.8592433
H -1.6395475 1.0839144 0.42971283
