17

O 2.013024 0.020701524 2.2284276
C 1.4297723 -0.81127036 1.2588862
C 0.73361456 0.033603206 0.1864008
C -0.26466492 0.53028125 -1.8146851
C -1.5523782 0.20806968 -1.22307
C -1.341261 -0.1137845 0.28383726
O -0.35057986 0.69312495 0.8255605
H 1.2948984 0.5679198 2.5765386
H 0.686973 -1.499214 1.6932259
H 2.2370281 -1.3984586 0.8109923
H 1.4799955 0.7226772 -0.21571532
H 0.09065446 -0.0043904386 -2.6923463
H 0.107884355 1.5439972 -1.7047791
H -2.1011462 -0.6071656 -1.7014111
H -2.184348 1.1092892 -1.2172264
H -0.045640957 -0.8651854 -0.21874659
H -2.2338257 -0.13019507 0.92411125
