17

C -1.1763225 -1.3855547 0.024842633
C 0.09913481 -0.5795914 -0.058732662
C 0.3985321 0.31975892 1.1103184
C -0.5815636 2.149291 0.39232588
O 0.39934796 2.5849376 -0.40342247
C 1.1911215 -1.0667053 -0.9140746
O 0.3422838 -0.012122648 -1.3609291
H -1.1174535 -2.1120982 0.84252137
H -2.0352252 -0.7318639 0.21306615
H -1.3505768 -1.9215214 -0.9121444
H 1.4366727 0.66332775 1.117649
H 0.14717361 -0.17418218 2.0552008
H -0.20611937 1.5046393 1.3767171
H -1.3197433 1.5338326 -0.14653441
H 0.47611344 2.0056655 -1.1837535
H 1.0791395 -2.0042713 -1.4592102
H 2.217485 -0.773542 -0.69384
