17

C -1.7445929 0.9456118 1.1789354
O -0.512601 0.31613922 1.4563936
C 0.61346585 -0.3333211 -0.34241894
C -0.3724484 -0.31213447 -1.4366306
C 1.6215839 -1.406448 -0.2723852
C 0.64913327 0.80257463 0.61993414
O 0.5491782 1.9009329 -0.037479006
H -1.572695 1.8661122 0.6099208
H -2.2268684 1.1902667 2.1318119
H -2.41608 0.27894115 0.6147747
H -0.924731 0.62614816 -1.4430367
H -1.036091 -1.1812444 -1.3243989
H 0.14383082 -0.4455769 -2.3962913
H 1.4484888 -2.237203 -0.9605541
H 2.592517 -0.9423341 -0.50104815
H 1.6970587 -1.7597624 0.76313454
H 1.4908514 0.69129723 1.3393382
