15

C 0.8788311 -0.61601114 -0.2675682
C 1.2158794 -0.55539477 1.1656754
C -0.6142405 0.98872805 0.41756406
C -1.0381593 -0.018537313 -1.866654
C -0.26125455 0.11923733 -0.57735187
O 0.40753064 1.6642951 1.1311041
C 0.49524784 0.44908983 1.8240556
H 1.5008717 -1.1950634 -0.9620047
H -0.5618556 0.57860637 -2.6570368
H -1.5992125 1.4268606 0.56626374
H 2.0215783 -1.1464483 1.6197056
H 0.24420689 0.4995576 2.871563
H -1.0763332 -1.046501 -2.2144809
H -2.0650187 0.3392953 -1.7394476
H 0.45192847 -1.4877144 0.68861276
