16

O -1.6618297 -0.48970434 -1.9766583
C 0.19188173 0.6058529 -0.25392383
C 0.44805515 -0.0977061 1.7570319
C 1.3720771 0.02141543 0.5278659
C -0.77724624 0.033342373 0.80868447
C -0.28433532 -0.41754988 -2.077953
H -2.0260572 0.21754004 -2.5100174
H -1.1834277 -0.9256168 0.5109339
H 1.6573105 -0.97513014 0.15827201
H 0.18564935 1.6995969 -0.286587
H 0.10917721 -1.2911805 -1.5436535
H 0.2569859 0.5579775 -1.6250322
H 2.2821085 0.6320578 0.61519015
H 0.52579045 0.7609625 2.4086425
H -1.5963513 0.69063205 1.1186504
H 0.50021183 -1.0224899 2.368554
