16

C 1.3526638 -0.47286788 -1.271133
O -1.1831112 0.87098384 0.42408052
C -0.066621125 0.401773 -0.005652244
C -1.8987948 0.26606512 1.371696
C 0.7301927 0.9441649 -1.1782432
C 0.28814602 -1.0363746 -0.2716563
H 0.4182826 0.43205398 1.9210855
H 1.3723912 -0.9324291 -2.255205
H -0.53934413 -1.563087 -0.7892501
H 0.6343736 -1.6594837 0.54598284
H 0.09130219 1.1865201 -2.0367656
H -0.26833326 0.31803682 2.3464322
H -1.9010633 -0.8137367 1.3768226
H -2.7979763 0.8022975 1.633346
H 2.3621933 -0.5070431 -0.85070485
H 1.4056987 1.763127 -0.960835
