16

O -0.7721565 -0.049302503 2.5469804
C -0.09604838 -0.6619998 1.5843796
C -0.49815145 1.1042955 -0.32284433
C 0.44611758 0.11833389 0.41490805
C 0.7645448 -0.5621751 -0.9246369
C 0.22044279 0.70203495 -1.6314074
H -0.3981937 0.5631937 -2.5176399
H -1.0738734 -1.4618872 0.88530463
H 0.09779373 -1.4212372 -1.0906578
H 0.5500814 -1.5028871 1.8532339
H -1.3554531 -0.9341493 1.6658225
H 1.3126818 0.64935625 0.8109689
H 1.0216985 1.4164102 -1.8648154
H -1.5298026 0.7404007 -0.28607142
H 1.7942494 -0.84786 -1.117913
H -0.48393095 2.1474729 -0.005612134
