15

C -0.99240524 0.26430428 -1.3830618
C -0.34767938 -0.86304533 -0.49762037
C -0.4516981 -0.36796784 0.9104414
C -0.71858823 1.3172411 -0.31909877
O 0.27313817 0.48937097 -2.1167274
C 0.7079075 0.12133333 -0.8527498
C 0.7274728 -0.7053924 1.7563984
H 1.7476292 0.1725772 -0.5753348
H 1.0677141 0.14990623 2.389013
H 0.3075836 -1.4240925 2.4864902
H 1.6127093 -1.1756376 1.3049824
H -0.27591842 2.1928213 -0.7269574
H -1.4768593 1.5744966 0.42841935
H -1.8827578 0.17643704 -2.0116718
H -0.29824808 -1.9223524 -0.7925233
