17

C 2.080709 0.15637851 0.31586513
C 0.69151497 0.54051083 0.68734384
O 0.327022 -0.36336768 2.2820232
C -1.4644073 -0.5444525 -1.6368544
C -1.6283131 0.6013278 -0.6420638
C -0.43328857 -0.032275766 0.035188977
O -0.22442928 -0.9668796 -1.0345415
H -2.227911 -1.3284379 -1.6010561
H -1.3047825 -0.253858 -2.6955721
H -0.49364668 -0.5615012 1.427026
H -2.5876448 0.6096768 -0.10186111
H 2.7768083 0.37082285 1.1281986
H 0.5454988 1.52048 1.1265407
H 2.1206539 -0.9079132 0.05852308
H 2.367546 0.727941 -0.54350656
H -1.4474156 1.5797852 -1.0984864
H 0.9020862 -1.1482373 2.293232
