15

C 0.87192565 0.04768321 -0.33094838
C 0.27721757 -0.94749624 -1.0949767
C -2.0248675 -0.6317233 -0.09609869
C -0.931006 -1.6367637 -0.64600396
C 1.9493728 2.0927079 1.0343806
O -1.3968549 -2.662137 -1.2666496
C 1.358465 0.9812116 0.28970072
H -2.7740722 -1.2068045 0.43736818
H 2.9883797 1.8695724 1.3185276
H -2.4835107 -0.1303881 -0.94410545
H 1.3881812 2.3165224 1.9416888
H -0.40645853 -1.899351 0.35325414
H 0.7822362 -1.318018 -2.0037234
H 1.9828647 2.9891825 0.43293226
H -1.5818721 0.1358025 0.5746538
