16

C 0.43768618 1.6630588 -1.4463843
C 0.5229875 0.7606354 -0.22937745
C -0.6801236 -1.4514369 0.834472
C -0.040486522 -1.2356192 -0.56342286
C -0.49537855 -0.27158797 1.6861627
O 1.0949315 -0.463411 -0.5343593
H 1.4452758 1.9277686 -1.8014575
H -0.10872137 2.5796301 -1.1967252
H -0.6238754 0.27985254 -0.2799559
H 0.48030782 -0.11411692 2.1114984
H -0.038863663 -2.2527359 1.2459967
H -1.7040234 -1.8192494 0.74488723
H 1.0427451 1.2928303 0.5840571
H -1.3309604 0.10252551 2.2708793
H 0.08947465 -2.1456466 -1.1729639
H -0.09097557 1.1475023 -2.253307
