15

C 0.12480005 0.94145787 0.68435615
C 0.7858156 1.2347026 -0.36697727
C 1.3343889 1.9665246 -1.4056468
C -0.23295362 -1.897819 -0.14338979
C -0.97920954 -1.2688571 1.0119827
O -1.4638875 -1.9346666 1.9156815
C -1.137033 0.257416 1.0358806
H -1.8725818 0.5064788 0.26301903
H -0.4654012 -2.9620802 -0.15344693
H -1.5372193 0.533421 2.0087616
H -0.52341247 -1.4203413 -1.092151
H 0.84716034 -1.7782097 -0.041499853
H 0.99660134 2.9695423 -1.6382774
H 2.1881008 1.582534 -1.968142
H 1.9348308 1.2698966 -0.11015031
