15

O -1.767939 -1.8652701 -0.40562218
C 0.47905314 -1.3645707 0.31791806
C -0.1836554 1.5143309 0.9959047
C -1.0597161 0.44500348 -0.29403943
C 1.3190107 -0.19866876 -0.19606173
C 0.3416288 0.98928005 -0.294434
C -0.9080562 -1.0860902 -0.16936657
H 1.7317841 -0.4238367 -1.1958692
H 0.4430268 -1.3612201 1.4227481
H 0.80777127 -2.3607078 -0.000775162
H -1.4578866 0.72403616 0.77261
H 2.166584 0.03843431 0.45870814
H -0.7007303 2.4647517 0.72674245
H -1.7555604 0.8021822 -1.0388175
H 0.5446855 1.6823461 -1.0996459
