16

O 1.0185345 2.00596 1.2646292
C 0.49769273 -0.9820936 0.59662664
C -0.4487685 -2.0740376 0.06338666
C -0.33514863 0.2518885 0.2541193
C -1.0301899 -0.25103232 -0.999017
C 0.4076459 1.5660579 0.08025099
H 0.7271761 -1.1434963 1.6393756
H -1.0869247 0.36961237 1.0363677
H -0.36750606 -0.32038236 -1.8597386
H 1.4719584 -0.90441334 0.06458324
H -1.4295002 -1.320536 -0.65460557
H 0.020519381 -2.5663986 -0.80371255
H 1.1651143 1.4602706 -0.7270772
H -0.27302444 2.362781 -0.24039043
H -1.9742928 0.2179839 -1.266529
H 1.636714 1.3278363 1.5517312
