15

C 0.7176377 3.1131172 0.30585384
C -0.0584834 1.9662157 0.08428522
C -0.7093362 -1.6470661 0.95336455
C -0.031504724 0.67657274 0.22053806
C 0.007469793 -1.1851149 -1.4536645
C -0.2309836 -0.63930666 -0.069830865
O 0.6867562 3.781046 1.3193959
H 1.3499998 3.388932 -0.5528383
H -0.96299154 -1.3305123 -1.9213496
H 0.67726845 0.2174632 1.0035911
H 0.5866263 -0.49156764 -2.0659907
H -0.030135348 -2.4920506 1.0519619
H 0.5194593 -2.1488614 -1.4219227
H -1.6820633 -2.0271602 0.6127145
H -0.8397195 -1.1817073 1.9338918
