17

O 1.2289621 1.1634402 -0.6838639
C 0.039002825 -1.8874018 -0.320241
C 1.455569 0.3658421 0.4633789
C -0.10365951 1.6584915 -0.57834566
C -0.8385999 0.69375455 0.3350977
O -1.1528988 -2.2704594 -0.5313041
C 0.10378381 -0.13847905 0.88868505
H -1.7525212 0.99983597 0.8165518
H 2.1888669 -0.4147112 0.16548361
H -0.08586212 2.6483853 -0.07696459
H 0.6266874 -1.4384071 -1.1406908
H -0.49457192 1.7798345 -1.5990762
H 0.60595614 -2.4021368 0.46944228
H -1.8484213 -0.17508484 -0.58466506
H -1.8484708 -0.9617176 -0.7387065
H 1.9264458 0.96632195 1.249238
H -0.050268546 -0.58750826 1.8659801
