17

C 0.23998715 -0.6385771 2.966202
O 0.6688208 -0.20991759 1.6869131
C 0.1695141 0.0097254375 -0.6253244
C -0.27519783 -0.54837835 0.6911446
C 0.30940083 1.3854334 -0.7982553
C -0.333328 0.23427318 -2.959147
O 0.31890526 1.8638359 -1.9417984
H 0.11621184 -1.7287003 3.0162578
H -1.3595705 0.45389277 -2.836221
H 0.96047884 -0.58134913 -1.1304597
H 0.18720447 0.8266735 -3.7232018
H -1.2497443 -0.15174265 0.9894383
H 1.0175403 -0.33902928 3.6785886
H -0.70800567 -0.16468023 3.2709413
H -0.09454546 -0.82552123 -3.019096
H 0.41318142 2.0645483 0.07905563
H -0.38085318 -1.6504867 0.65496284
