16

C -0.95955414 0.59763086 -0.5600359
C -0.015881842 -1.9568797 0.28321412
C 0.08066832 2.0230706 -0.38253614
C 1.0470563 -0.44477743 0.3610464
O 1.2968017 1.7373075 -0.1877226
C -0.30741528 -0.13690238 0.51074845
H 0.795351 -2.5814483 0.66558
H -1.9993246 0.8459573 -0.4008472
H -0.74129325 0.23253371 -1.5530283
H 1.7132705 -0.5330306 1.1979429
H -0.69619536 -0.073708646 1.5151808
H -0.9114683 -2.2074711 0.8706322
H -0.42804882 2.6149704 0.4217558
H -0.15545852 2.5276284 -1.354384
H -0.19138207 -2.163379 -0.7631002
H 1.472874 -0.48150054 -0.6244461
