15

O 0.11852643 -1.5370035 -2.444275
C 0.588551 1.2503871 0.20172727
C 1.6157329 0.27860686 0.5604437
C -1.4275156 0.2403318 0.82966644
C 1.1455598 0.57713145 -0.8329135
C -1.4483534 -0.97634107 0.17713498
C 0.109216034 -1.1208602 -1.387789
H -2.0077066 1.0593878 0.45164788
H 1.2882857 -0.6721621 0.99120605
H -1.0536319 0.29452747 1.8427638
H -1.1218985 -1.8708627 0.7126781
H 2.6197252 0.6002063 0.87693805
H -2.15752 -1.1256131 -0.64077634
H 0.19126792 2.2170777 0.4786367
H 1.5397615 0.78518665 -1.8170886
