15

O 0.96053976 2.0490303 0.28948146
C -0.25691736 -0.4185113 1.3676811
C 0.59228414 -0.3707244 -1.0980424
C 0.19404237 1.7774653 -0.7643091
C 0.2582696 -1.0761944 0.20445302
C -0.6493508 0.14518513 2.346574
C -0.5993759 -1.2846867 -1.0207907
H 0.58575207 0.9125528 -1.5146831
H 0.4731916 1.8842298 1.1278998
H -0.55548334 -2.232144 -1.5375901
H -1.0351361 0.5892856 3.2292464
H -0.81663483 1.4319317 -0.44518402
H 1.4690741 -0.6997387 -1.6314678
H -1.5852937 -0.8259325 -0.9957551
H 0.9650382 -1.8817492 0.4424865
