15

O -1.6699113 -2.2166233 0.02679031
C 0.10553827 -1.039414 -1.0724072
C -1.0957003 0.06299293 0.6801961
C -0.949259 -1.2167718 -0.11968553
C 0.59239906 0.3407183 -1.0332065
C -0.10179462 1.0548854 0.114532575
C 0.113810524 0.48225805 1.4791913
H 1.4989238 -0.4071452 -0.6221492
H -2.0867488 0.36622617 1.0025058
H -0.35447028 2.1006935 -0.041598417
H 0.80368966 0.8854248 -1.9566598
H 1.9342343 0.45294264 -0.55794764
H -0.05609789 1.1172739 2.3311105
H 0.3662597 -1.7370578 -1.8485023
H 0.8991268 -0.24640298 1.6178294
