15

C -0.8429288 0.5202863 0.35095492
C 0.16711698 1.505485 0.8971521
O 1.4501623 -0.15451138 -0.123219736
C 1.368068 0.6450512 0.8639376
C -0.60871977 -0.78319037 1.0151308
C -0.03684152 -0.57131493 -0.29768756
C -0.19273998 -1.3223772 -1.5825336
H 0.3448332 2.4106374 0.28149346
H -1.396494 -1.4810526 1.1864364
H 0.10106194 -0.68173593 -2.4372137
H -0.096489266 1.852709 1.8849053
H -1.2202866 -1.6209534 -1.6841451
H 0.4384556 -2.210413 -1.5824294
H 2.326892 1.025681 1.2489587
H -1.8020897 0.8656988 -0.021740226
