16

O 1.9435756 -0.13228779 -1.9464649
C -1.763927 0.48828638 0.81421506
C -1.1048449 0.8323288 -0.39727163
C 0.107134774 -0.8469098 1.0576116
C 0.13494317 -0.4047783 -0.37240666
C 1.5382167 -0.15790384 -0.62025476
H 2.479992 0.6444592 -2.108916
H 1.3877524 -1.2580459 0.6299505
H -1.6668235 0.66110444 -1.3296523
H 0.4415194 -0.13032211 1.7894137
H -2.5773606 -0.24102029 0.8058829
H -1.704355 1.1043485 1.7106552
H -0.23478802 -1.1345567 -1.0759257
H -0.46103874 -1.6977544 1.4014927
H -0.60889316 1.8008035 -0.41960844
H 2.0888972 0.47224823 0.061278865
