15

C -0.96519715 0.10485336 -1.3148543
C 1.6116372 0.7059113 1.4772097
C 0.54864913 0.11317145 0.605034
C -1.4353284 -1.1059799 -0.6139444
C 0.010567568 -1.0562996 0.96326065
O 0.3451761 0.015148703 -1.8346869
C 0.14325869 0.79454994 -0.6476781
H -0.7029709 -1.7397019 0.28661874
H -2.3572648 -0.9815686 -0.053586133
H -1.6630677 0.6722824 -1.9206073
H -1.5152996 -1.9882559 -1.2921867
H 1.7592946 0.09987228 2.376689
H 1.3312888 1.7107852 1.7951821
H 0.3292666 1.8646629 -0.7931921
H 2.5599895 0.79056853 0.96674144
