15

C 1.1492368 -0.7393553 1.3626544
C 0.059974305 -1.1600386 0.4829248
C 0.5726963 1.1628429 0.36110947
C 1.1674426 0.5862101 -0.78588283
O 1.2306541 0.49566138 1.6514354
C -1.4770408 0.27428213 -1.061104
C -0.15226409 0.076611124 -0.32486814
H -0.7698569 -1.4259473 1.1538426
H 1.3663582 1.129164 -1.6921868
H -1.5727863 -0.48485017 -1.8618836
H -1.5410172 1.236025 -1.5196784
H 0.29987493 -2.0553126 -0.1138068
H -2.312996 0.13489242 -0.37270162
H 0.30087498 2.1582806 0.6607167
H 1.678849 -1.3884656 2.0594292
