16

C 0.94927883 -0.33089352 1.538607
C -0.31636092 -0.059151728 -0.5755895
C -1.3343459 -0.5974204 -1.5408643
C 0.60053235 1.6371181 0.23418659
C 0.33534703 -1.0324883 0.44939792
O -0.70748234 1.1201543 0.0142171495
H -1.4300443 0.055081375 -2.417643
H 0.7141312 2.0968277 1.2366365
H -2.3287666 -0.68095005 -1.0785546
H 1.1261773 0.71838313 -0.35731453
H -0.54292905 -1.525908 0.835943
H 1.9475961 -0.57080126 1.8694263
H -1.0422201 -1.5946327 -1.8860278
H 0.79647905 2.3946629 -0.5219652
H 0.9335436 -1.7993063 -0.05568485
H 0.29906428 0.16932477 2.2552292
