17

C -0.17308086 -0.47463298 1.0950985
O 0.08926773 -0.04667317 2.2690558
C 0.97619003 -0.040872548 0.015807312
C -1.415337 -0.09643384 0.4773206
C 1.8794713 -0.29712498 -2.0963001
C -2.3265967 0.7024391 1.2570528
O 0.8213174 -0.626294 -1.236267
H -1.761986 1.5999283 1.55508
H -1.5656455 -0.29848272 -0.596622
H -0.114424236 -1.5920633 0.8348956
H 1.9003696 -0.39172208 0.50909626
H 1.9115672 0.7935141 -2.2909641
H -2.4728909 0.20956235 2.2259629
H 2.8515034 -0.6070793 -1.7077911
H 1.0066471 1.0494976 -0.036906537
H 1.6766763 -0.8115152 -3.0485213
H -3.2830489 0.9279528 0.7740019
