15

C 0.11499845 0.4036828 -0.6398938
C 0.22934577 -0.20321982 0.68898827
C 1.785678 1.2794662 -2.4739304
C -0.9995654 -1.0133176 1.0358788
C 1.0070235 0.62830025 -1.5355045
C -2.1323256 -0.42256442 1.7456838
O -1.1984072 -1.2714713 2.4023578
H -2.0770755 0.6239945 2.0241618
H 1.8495595 -0.16010565 -1.8137009
H -1.187643 -1.860869 0.36660567
H 2.0773184 0.75720817 -3.3813598
H 1.1578958 -0.78967196 0.8339686
H 2.2319138 2.256966 -2.289518
H -3.1269176 -0.84477633 1.6184397
H 0.26820043 0.61637765 1.4178231
