15

C 0.098997205 -0.37654454 -0.54760706
C -0.1849713 -1.1866138 0.6945605
O 1.4579246 -0.09829805 -0.18088809
C 0.9853089 -0.25561485 1.1704876
C -0.79340416 0.5284819 0.3246247
C 0.15912724 1.0306059 1.3713369
C -0.17213653 -0.6467976 -1.9929848
H 1.7539765 -0.58285505 1.8684484
H -0.3052808 1.0650126 2.3748486
H -1.2376097 -0.8609749 -2.134611
H -1.3271488 -0.3752641 0.9341516
H 0.4202987 -1.4936357 -2.347242
H -1.6328795 1.0599982 -0.107372634
H 0.07286458 0.23436867 -2.6078706
H 0.70493317 1.9581316 1.1801177
