17

C -1.7232897 0.91264755 -0.5216167
C -0.2781767 1.0404502 -0.14950864
O -0.4611691 1.6989005 1.6092687
C 0.45508176 -0.09372647 0.28849754
C 0.22783704 -1.5505131 -0.09712425
C 1.7300428 -1.5171198 -0.42573336
O 1.8669671 -0.15997392 0.018315729
H -2.2534328 1.8624464 -0.4330241
H -1.784424 0.56742126 -1.5622834
H -2.219498 0.17128505 0.1115651
H 0.27934533 1.8801465 -0.5646676
H 0.24042366 2.3486066 1.7888136
H 0.07498878 0.6102269 1.5070097
H -0.04945949 -2.2230527 0.7191796
H -0.43691197 -1.729697 -0.9491239
H 1.969827 -1.617492 -1.4927744
H 2.361848 -2.2005558 0.15320635
