15

C 2.0221772 2.146602 0.90455467
C 0.8711042 1.2557619 0.82240456
C -0.0846498 0.50846535 0.75460345
C -1.1840528 -0.34952927 0.671413
C -1.1931086 -1.6170325 -0.05551924
O -2.186594 -2.4196713 -0.044426616
C -0.7857334 -1.1856648 -1.5690432
H 1.7511963 3.1015134 1.3644044
H 2.426164 2.3423498 -0.09417397
H 2.8171415 1.687647 1.5022488
H -2.1002498 -0.05137643 1.1858343
H -0.1875228 -2.0495682 0.25517604
H -0.64176613 -2.1368854 -2.0811403
H -1.638837 -0.66373515 -2.0047467
H 0.114731014 -0.5688762 -1.6115892
