16

O -1.02723 -2.1468647 1.0451239
C -0.50454515 -1.7417034 -0.07967285
C -0.05674922 -0.35066578 -0.11696603
C 0.8391893 0.4534067 -1.0251073
C 0.4563383 1.7007192 -0.18341208
C -0.7212309 0.89008087 0.4203935
H 0.18187492 -1.374389 1.7722385
H 0.18623321 -2.4089608 -0.6382822
H -1.2811435 -1.4142158 -0.86339694
H 0.75095624 -0.80330354 1.5772808
H 0.4511466 0.50207096 -2.0494916
H 1.8869598 0.14304942 -1.0664663
H 1.2178415 1.938237 0.5630193
H 0.19759218 2.6053643 -0.73737365
H -1.6622267 1.0798889 -0.111107595
H -0.91500646 0.9272862 1.4932204
