17

O 0.0031749415 2.493253 -0.6068368
C 0.034628626 1.450032 -1.3067127
C 0.80640423 -0.21304849 -0.29319823
C 0.46139905 -0.075209506 1.0417522
C -0.72596025 -0.9769996 1.3040658
O -1.196008 -1.3328571 0.018610502
C -0.081654906 -1.3090392 -0.8569155
H -0.19110827 2.0394986 0.7662789
H -0.9095354 0.93602616 -1.5507808
H 0.84416413 1.3302674 -2.0398932
H 1.8382822 -0.10565846 -0.6108107
H 1.1732314 0.15725577 1.827291
H -0.12745163 1.4038832 1.30918
H -1.5492982 -0.52598536 1.864178
H -0.3708935 -1.8643873 1.8585205
H -0.45696306 -1.1298541 -1.8709393
H 0.44758862 -2.2771769 -0.85378957
