15

C -0.78468233 -0.4900602 -1.8265613
C -0.29949984 0.15738903 -0.56492
O -1.3535727 0.008985161 0.5252075
C -0.7302885 0.12852925 1.6213844
C 0.7353919 -0.13724127 1.6086769
C 1.0301157 0.032189805 0.13275713
C 0.4856273 1.3597856 -0.30743262
H -1.6177269 0.073981546 -2.2591927
H 0.03418638 -0.4845968 -2.5523827
H -1.1023417 -1.5285146 -1.6789402
H -1.3474667 0.1499697 2.5215428
H 1.2906632 0.5843848 2.2131548
H 0.88259065 -1.1388323 2.058562
H 1.8378817 -0.55284715 -0.3136875
H 0.9391217 1.8368775 -1.1781683
