16

O 1.9451181 -1.2710856 1.1414573
C 0.8753441 -1.3510232 0.22226769
C 0.42229998 0.01811744 -0.2562994
C -0.7064535 0.02238686 -1.2860281
C -1.049712 1.8236954 -0.12745008
C -0.2345797 0.9202649 0.79987496
H 1.6368784 -0.76799995 1.9060487
H 1.246109 -1.9436674 -0.62200683
H 0.016688336 -1.8954651 0.652539
H 1.2846951 0.54491246 -0.6814935
H -1.5788052 -0.5625932 -0.98595244
H -0.4354123 -0.2005192 -2.3236673
H -0.9377343 1.1984776 -1.3738613
H -2.1275146 1.6594523 0.05106388
H -0.83470684 0.3007135 1.4878399
H 0.47778547 1.5043333 1.3956674
