15

O -2.212538 -1.0217589 -1.2088962
C -1.162512 -0.6132255 -0.73819673
C 0.102966115 -0.38510355 -1.3899597
C 1.1259078 -0.018980209 -0.41432923
C 0.4454322 0.21366498 0.906529
C -0.6325262 1.2597797 0.8720844
C -0.99665034 -0.18805481 0.71947986
H 0.2714359 -0.39903212 -2.4579818
H 1.2397672 -1.255559 -0.6869629
H 1.9664041 -1.1548803 -0.02716115
H 1.9942089 0.5695521 -0.71371526
H 0.994594 0.04164078 1.8254194
H -0.7190513 1.9036803 0.0007990605
H -0.84914666 1.7406164 1.8216513
H -1.5682914 -0.69234 1.4912398
