15

C 2.096988 1.1412882 -1.5320022
C 1.4183594 0.08226894 -0.952212
C 1.1696353 -0.9707869 -0.24185885
C 0.11236777 -1.2583188 0.7561371
C -0.81396115 -0.10632519 1.0819863
C -2.0913436 0.058878515 0.38407677
O -2.0387902 -0.43045408 1.7168813
H 1.7866806 1.5306872 -2.4963937
H 0.5627429 0.84258616 -1.1871507
H 2.901606 1.6621096 -1.0148168
H 0.61678916 -1.5910485 1.6745381
H -0.4825309 -2.1235557 0.4343121
H -0.3233448 0.78712493 1.4771808
H -2.5303473 1.0498221 0.26801798
H -2.3848512 -0.6742764 -0.36869615
