15

C 0.86259496 1.7713875 1.0029746
C 1.2204908 0.45895514 0.8184732
C 1.0265529 -0.75195855 0.592554
C -0.06447034 -1.7410799 0.45194995
C -0.65456057 -0.5117532 -0.13090976
O -1.3330978 0.35272104 0.56635725
C -0.52385736 -0.2622199 -1.6091919
H 1.2321821 2.5316362 0.31569558
H 0.73337215 2.1079388 2.0311663
H -0.60935056 1.2235249 0.7117502
H -0.47007912 -2.044551 1.4163017
H 0.10870805 -2.5778875 -0.22400421
H -1.501409 -0.41533905 -2.0804615
H -0.23445243 0.7812921 -1.7797725
H 0.20737651 -0.9226668 -2.082883
