15

C 0.4881873 -0.56424516 -1.6519461
C 0.090804726 0.12832873 -0.36672887
C -1.2282456 -0.2532582 0.29278016
C -0.9087884 -0.032009743 1.7292452
O 0.31165448 0.042737618 2.0511947
C 1.0522788 0.3618027 0.76885337
C 0.4505985 1.5054046 0.101332664
H -0.1939364 -0.28640437 -2.4647732
H 1.4940548 -0.25384358 -1.9528662
H 0.4815285 -1.659175 -1.5654007
H -1.5623022 -1.3057308 0.20065762
H -2.0449698 0.38609853 -0.05310841
H -1.6091723 -0.18054017 2.5524685
H 2.071164 0.004032637 0.8869353
H 1.1071438 2.1068022 -0.52864426
