16

C 2.1569316 0.5441241 -0.2518782
C 0.87910897 -0.14828375 0.21108279
C -1.2185037 -0.24315967 1.248019
C -1.8187401 -0.11137596 -0.06701447
C -0.6911586 -0.06621015 -1.1452031
O 0.33974212 -0.93800825 -0.83319914
H 2.943427 -0.20118861 -0.4150289
H 2.5007448 1.2493654 0.51213527
H 1.9794378 1.0914851 -1.1830657
H 1.1019548 -0.7339187 1.1057444
H -0.95183396 -1.2373134 1.5941072
H -1.4363239 0.48038656 2.030543
H -2.4808028 0.7488202 -0.19867511
H -2.370961 -1.0314231 -0.3122923
H 0.072522886 0.7796138 -0.10226313
H -1.0055465 -0.1829138 -2.1930118
