15

C 0.28064328 1.376534 1.5590907
C 0.33543122 0.40254605 0.42409214
O 1.0877243 -0.798518 0.60345054
C 0.9081826 -0.95242786 -0.8244592
C -0.56821316 -1.352507 -0.927527
C -0.93486595 0.026052326 -0.38919327
C 0.7601906 0.61400944 -0.99899685
H 1.292448 1.6693963 1.852083
H -0.26404032 2.275442 1.2527691
H -0.2236405 0.93608457 2.4254053
H 1.6905216 -1.5364071 -1.3105435
H -0.91112167 -1.5084146 -1.9538774
H -0.8304042 -2.2087772 -0.29941544
H -1.9116502 0.3770877 -0.05463152
H -0.71120596 0.6798992 -1.3582463
