15

O -0.6604689 -0.2643967 2.475446
C -0.44096902 -0.29573837 1.2900419
C -1.4822301 -0.5683707 0.19150335
C -0.6762703 -0.6434681 -1.0801256
C 0.7079252 -0.44756544 -0.7799789
C 1.0912815 1.2810813 -0.023043618
C 0.92111915 -0.08537029 0.6376307
H -2.2435412 0.22499779 0.22313268
H -2.0053873 -1.5025984 0.44049758
H -1.052985 -0.83237475 -2.0746112
H 0.10898683 0.62212986 -1.1863182
H 1.5369214 -0.67894053 -1.4410628
H 0.32583898 2.0158904 0.23613282
H 2.1051023 1.665562 -0.1020272
H 1.7646762 -0.49083805 1.1927823
