15

O -1.2192576 0.62144107 1.7932774
C -0.7300884 -0.62173057 1.7576172
C 0.98731667 -0.4019986 0.44076264
C 1.2705951 -0.8642429 -0.9489063
C 0.7422273 0.53700876 -0.70491177
C -0.62011945 0.83254117 -1.1054653
C -1.7577566 1.059669 -1.4406337
H -1.8030719 0.7411744 1.0262761
H -0.19181378 -1.0389181 0.76136917
H -0.07524975 -0.76240623 2.6251304
H 1.8190458 -0.19322374 1.1039593
H 2.305 -0.96701694 -1.2685388
H 0.5845272 -1.5654056 -1.420324
H 1.4378489 1.3626101 -0.8361593
H -2.7492034 1.2604984 -1.7834532
