15

C 1.7456644 0.1400961 1.0684358
C 0.5454311 -0.3352059 0.30093685
C 0.5941112 -1.7168729 -0.28007814
C -0.5651509 0.4795249 0.09770549
C -1.8356031 0.6806905 -0.07517939
C -2.6486053 1.5082535 -0.9012585
O -3.2349503 1.1540256 -1.9141216
H 2.6703663 0.07494524 0.48239148
H 1.6157867 1.1591163 1.4406798
H 1.8710341 -0.52594346 1.9329818
H 0.2696507 1.0883119 -0.45713115
H 0.1302118 -2.393452 0.45373887
H 0.008943683 -1.7902722 -1.1986058
H 1.6178441 -2.0576146 -0.46301696
H -2.7847347 2.534397 -0.48747846
