15

O -2.0640905 -1.8049355 0.87019616
C -1.1648047 -1.266664 0.39717406
C 0.90137464 -0.86903155 1.3471919
C 1.2006955 0.4225722 1.0482676
C -0.23223014 1.2041013 -0.6069116
C -0.082157955 0.25361028 -1.7362014
C -1.2648343 0.38493845 -0.8327731
H 1.3796334 -1.6928531 0.825687
H 0.37711787 -1.1258194 2.263627
H 0.9096168 1.2233883 1.7223368
H 1.9678805 0.6572049 0.31715122
H -0.010482801 2.2262194 -0.34604025
H 0.5584677 -0.62775594 -1.5946109
H -0.133701 0.6018582 -2.770114
H -2.3424854 0.41316673 -0.9049804
