15

C -0.4418935 0.8342767 -1.8286622
C -0.02865245 0.9738239 -0.39643517
C -0.71001446 0.12967227 1.404414
C 0.75304985 -0.2888131 1.5142664
O 0.4870762 -1.7075254 1.2409145
C 0.029533906 -1.1196989 0.07565059
C 1.0137924 -0.019983847 -0.01214618
H 0.19681999 1.5722044 -2.3406503
H -0.26040947 -0.13741666 -2.3244383
H -1.475078 1.1490755 -2.0031898
H -1.3690689 -0.616049 1.8603293
H -1.0232815 1.1425587 1.6352525
H 1.4217087 -0.09747707 2.355754
H -0.5628842 -1.667325 -0.6531537
H 1.9693012 -0.14732243 -0.52790517
