15

C -1.5963855 0.645018 1.5215752
C -0.5406066 0.39300096 0.47313324
C 0.03953452 1.414844 -0.1400377
C 1.3164319 0.2566823 -1.3699446
C 0.8915628 -1.0770152 -0.84532297
O 1.2317291 -1.3211964 0.5089949
C -0.12876754 -1.0169412 0.19618945
H -2.5111578 0.086210184 1.2891176
H -1.8457179 1.7064315 1.5833546
H -1.2473054 0.31293055 2.5063543
H 0.7849068 1.4943991 -1.0291007
H 1.1119131 0.38093555 -2.4375021
H 2.3580053 0.49066737 -1.1359872
H 0.96653074 -1.9376274 -1.5114763
H -0.83067375 -1.8283392 0.39065215
