16

C -0.32267284 -1.1980549 1.4446808
C -0.14938922 -0.60583085 0.064758144
C -0.94100845 0.57864356 -0.39567706
C -0.6766098 1.1538017 -1.6104347
O 1.5484297 1.3340102 -0.8562688
C 1.6776236 0.46208328 0.020983052
H -1.0907027 -1.9779296 1.5154648
H 0.62491673 -1.6559278 1.7495787
H -0.55675024 -0.41837496 2.1781294
H 0.1698478 -1.2859273 -0.72499365
H -1.4566393 -0.5285856 -0.44071004
H -1.4090717 1.1581033 0.39791313
H -1.0482172 2.1425405 -1.851326
H -0.2222778 0.58223754 -2.4116669
H 2.2541428 -0.4621293 -0.17646796
H 1.5983787 0.72134 1.096037
