16

O -1.2593526 0.11989876 -2.463977
C -0.89350474 -1.002518 -1.8034252
C -0.6262765 -0.117807336 0.1355569
C 0.05811479 -0.7331241 1.3649594
C 0.94263905 0.532991 1.430728
C 0.57264024 0.8317962 -0.042409647
H -0.50986385 0.72271514 -2.6005743
H -1.21856 -1.01183 -0.6175079
H 0.19295976 -1.1734318 -1.838272
H -1.5441539 0.43373662 0.36900547
H 0.641383 -1.6229488 1.1017532
H -0.5711404 -0.96612346 2.2285151
H 0.5213282 1.2822634 2.1075873
H 2.0033634 0.4002421 1.6640581
H 1.3306849 0.43283063 -0.727128
H 0.35973865 1.8713095 -0.30886927
