16

O 2.013118 0.096116014 -1.8445097
C 1.5046337 -0.05085301 -0.5897033
C 0.07007525 -0.29489523 -0.428084
C 0.07155561 -0.86978364 0.9726194
C -1.773195 0.27526915 0.72164416
C -1.0298239 0.8647022 -0.3911581
H 2.853424 0.5692375 -1.8071948
H 1.2950213 -1.2253778 0.668859
H 1.9644837 0.5947149 0.16547033
H -0.27808824 -1.0633672 -1.1240257
H 0.2715798 -0.19017205 1.7991512
H -0.41637662 -1.8137357 1.1983604
H -2.5202477 -0.4835329 0.50239074
H -1.9146361 0.8165351 1.6514363
H -0.5682241 1.8254874 -0.14339405
H -1.5432996 0.9496554 -1.3518618
