16

C -1.0171943 1.9888846 -0.7664871
O 0.055357043 1.2351956 -0.92559355
C 0.18420133 0.07735655 -0.34935927
C -0.2330429 -0.31748372 1.0420387
C 0.88126206 -1.3979956 0.9652365
C 1.4250102 -0.7746335 -0.35387182
H -1.5497684 1.9225123 0.17759615
H -1.9435624 0.3461436 -1.377921
H -0.9761388 2.9140625 -1.3250443
H -1.5208585 -0.32171142 -1.2745446
H -0.0216188 0.477275 1.7764009
H -1.2582599 -0.6666023 1.2003396
H 0.4807173 -2.404222 0.82179713
H 1.5827217 -1.410241 1.8023463
H 2.3543715 -0.20722611 -0.21675989
H 1.5568029 -1.4613159 -1.1961737
