17

C 2.4503667 0.32939756 1.8206213
O 1.1150688 0.03408054 1.5107664
C 0.8734263 0.079780355 0.116534635
C -0.57297075 -0.15378712 -0.17571421
C -2.3780537 0.5724645 -1.5379708
C -1.0861315 -1.3765888 -0.5980593
O -2.2090707 -1.4296356 -1.1620722
H 3.1466599 -0.39129543 1.360954
H 2.555089 0.27809232 2.9072096
H 2.7332313 1.3398434 1.4821317
H 1.4948022 -0.6725942 -0.40173623
H 1.1868005 1.0649695 -0.27459934
H -1.2634355 0.39191422 0.4662709
H -3.4316049 0.33482188 -1.4425458
H -2.1132345 1.5304562 -1.103372
H -1.9523405 0.39236274 -2.5172117
H -0.5486026 -2.324282 -0.45120713
