15

C -1.0754231 -1.7868198 0.4917117
C -0.16754375 -0.6719732 0.038418356
C 0.43199137 0.1999515 0.968989
C 0.6701869 1.556697 0.42040393
C 0.60200155 1.5933614 -0.97132874
O 1.0910631 0.4627895 -1.615682
C -0.061332915 -0.25416112 -1.272555
H -1.3761635 -2.4312806 -0.33986902
H -1.9854063 -1.3913362 0.9582608
H -0.57761717 -2.4175937 1.2358171
H 0.47024757 0.022344874 2.0389354
H 0.5404989 2.4259686 1.0570542
H 1.6594877 0.8341963 0.68098134
H 0.42834824 2.4739895 -1.5791318
H -0.6503386 -0.6161343 -2.112005
