17

C 1.1183355 0.22005722 2.3422172
O 1.4588641 0.2123735 0.97391236
C 0.8698417 -0.82378024 0.25571197
C -0.6175511 0.6804601 -0.9426917
C -1.1823925 0.71700066 -2.2859473
C -0.6557834 -0.5766238 -0.24793927
O -1.1633195 -1.6303914 -0.771291
H 0.03865585 0.3715018 2.4917128
H 1.6594914 1.048312 2.8040686
H 1.4098375 -0.7203597 2.8302226
H 0.7830236 -1.7495747 0.83323807
H 1.467484 -1.0095366 -0.6385195
H -0.13389076 1.5351657 -0.4738952
H -2.153407 0.19958168 -2.2676005
H -1.2272706 1.6978129 -2.7583349
H -0.5649281 0.019717569 -2.881379
H -1.1069908 -0.19171664 0.73651415
