16

C -0.6695693 -0.6560474 -1.9127847
C -0.36630517 -0.19990607 -0.5155685
C 0.9692302 -0.67628026 0.1665237
C 1.2037157 0.08461258 1.375666
C -0.83792454 1.1220407 1.0219431
O -0.5326591 1.1645837 -0.35699424
H -1.7275357 -0.4808452 -2.1336558
H -0.4571144 -1.7234888 -2.0274704
H -0.08287234 -0.09853314 -2.6566916
H -0.9111494 -0.13212338 0.9701969
H 0.9397443 -1.7632139 0.284086
H 1.7319973 -0.4223842 -0.58428454
H 1.6941483 1.0498323 1.2906373
H 1.320919 -0.41793722 2.3324726
H -0.351367 1.9005632 1.6138737
H -1.9232578 1.2491271 1.1320509
