16

C -0.36963853 0.18281135 -1.3136921
C -0.30102032 1.1750823 0.9694738
C -0.90234107 -0.19727169 1.1442719
O -1.5996255 0.575583 -1.539981
C 0.164991 0.030598972 0.09361515
C 1.5294579 -0.5509092 0.25193357
H -0.9230437 1.9481832 0.52877516
H 1.5511663 -1.5836302 -0.119358435
H -0.627099 -0.7807275 1.9939677
H -1.1592311 -0.68065083 -1.8160107
H -0.36853746 -1.2216119 -1.7016474
H 2.2749221 0.01211817 -0.2815441
H 0.4255661 0.46750894 -2.0278184
H -1.9205768 -0.3121834 0.78855985
H 0.41110098 1.5197194 1.7171803
H 1.8139093 -0.5846208 1.3122752
