16

C -0.99213594 -0.9787559 -1.015395
C -0.66784745 0.14031439 -0.057943147
C 0.7580379 0.6942236 -0.09561722
C -1.9141611 0.87671703 1.1182004
C 1.814814 -0.26734528 0.40938824
O -1.6389282 1.1576883 -0.22417784
H 0.9488208 0.99289274 -1.1280545
H -2.0184886 -1.3228531 -0.86430156
H 2.7837305 0.17557359 0.3666274
H 1.8416862 -1.1825178 -0.22005269
H 1.6014404 -0.60130525 1.4291939
H 0.7627691 1.6158667 0.508649
H -0.3196255 -1.8268756 -0.87457454
H -0.88912547 -0.61631364 -2.0503423
H -0.9200279 -0.30114266 0.99139786
H -1.150959 1.4438328 1.7070019
