16

C 1.4145987 1.5047165 0.09655554
C 1.7579379 0.981169 1.3710514
O -0.30481064 -0.253062 0.39806148
C -0.9397254 -0.93906236 -0.60380423
C 0.8332618 0.10690483 -0.3370602
C -2.4206333 -1.0611315 -0.42808443
H 2.7693758 0.59008944 1.553671
H 0.594946 2.2165933 0.074030876
H -2.8675065 -0.058734342 -0.30814886
H 1.6188898 -0.68357277 -0.352595
H 2.2123973 1.7822598 -0.58418125
H -0.4256225 -1.9052157 -0.81426525
H -2.6890647 -1.6394402 0.4606532
H 0.22504526 -0.045107055 -1.3955344
H 1.0880404 0.9395717 2.1721349
H -2.8671293 -1.5359784 -1.3024848
