15

O -0.14796428 0.08022792 2.5647404
C -0.3201439 1.344124 0.47859606
C 1.1187769 -0.7849235 0.5967527
C -0.22619812 -0.3105658 -1.3828622
C 1.0031486 -0.8511002 -0.7166195
C -0.079155944 -0.10579163 1.3227371
C -1.0212845 0.4655205 -0.39777896
H -0.8853224 2.0282354 1.1086661
H -0.813992 -1.1174545 -1.8347223
H 1.7411616 -1.353765 -1.357144
H -2.0945795 0.43864202 -0.3892259
H -0.9454418 -0.7486215 0.83483005
H 0.058423497 0.3388742 -2.2068803
H 1.9440098 -1.1275803 1.1965983
H 0.66856205 1.7041788 0.18231267
