16

C -0.39327657 -1.2421755 -1.6272737
O -0.75288886 0.035720475 -1.0714743
C 1.1582127 1.2764422 -0.2886103
C -0.8147595 0.70933247 1.5041137
C 0.20776625 0.540173 0.45455474
C 0.058868103 -0.52316487 1.458772
H -0.9656124 -2.0346096 -1.135663
H -1.8521917 0.61168456 1.2163849
H 0.67877287 -1.4432151 -1.4998887
H -0.5892017 1.4725323 2.2512722
H 1.1189442 2.342476 -0.25476196
H 2.1621244 0.852619 -0.38888922
H -0.44298902 -1.4456058 1.1565781
H 0.18494426 0.7542529 -1.241809
H 0.8694122 -0.6559548 2.1621192
H -0.6281249 -1.2505075 -2.6954243
