16

C -0.43421283 0.9142001 0.09762237
C -1.3786674 0.18392718 -0.7816429
C 0.6682643 -1.104732 -1.2644762
O 1.2552011 0.9017632 1.807187
C -0.45710343 -0.87827134 -0.26951125
C 0.38701847 -0.1260546 1.3379705
H 0.3883756 1.4128463 -0.39941698
H 1.0681547 -0.96308905 1.2177213
H 0.989038 -0.2481434 -1.8652092
H -0.3834122 -0.3914894 2.0742204
H 0.7339494 1.6150656 2.2015584
H -2.4212813 0.13801433 -0.4371531
H -1.3162948 0.46331337 -1.8252127
H 0.26439875 -1.8574582 -1.9577752
H 1.557232 -1.5662147 -0.7915234
H -0.92066044 1.5063229 0.85564077
