16

C -0.17267416 -0.53884375 0.72135866
C -0.19931766 0.984802 0.9208545
C -0.70805484 -2.208737 -1.1637691
C -0.060526494 -0.977275 -0.70166
C 1.0828259 1.6867602 0.4750634
O -1.1535865 -0.5819378 -1.5609225
H 1.2791471 1.5482565 -0.5882842
H -1.0578983 1.3946456 0.37958717
H 1.9557217 1.2793604 1.0254887
H -1.8503443 -1.3482784 -1.2716126
H -1.0693213 -0.99521905 1.1481338
H 1.0392963 2.7509737 0.6730768
H -0.38815144 1.2034825 1.9806474
H 0.6893541 -0.9603898 1.2814858
H -0.24101114 -2.5644286 -2.0955396
H 0.8545408 -0.6731717 -1.2239087
