15

C -0.8418589 -0.47793806 0.7932314
C 0.5643814 1.3764906 1.78409
C 0.16228145 0.41732362 0.7201548
N -0.84307075 -1.2359606 -0.4470277
C 0.82922727 0.358999 -0.5873346
N -0.32815763 -0.9503793 -2.4927032
C 0.13378423 -0.54593563 -1.3332424
H -0.510692 -2.192895 -0.2808538
H -1.4559699 -0.749471 1.6139046
H 0.45297328 2.4097922 1.4169213
H 0.09039445 -0.6786544 -3.3632026
H 1.6066661 1.2466229 2.065826
H 1.5433168 1.0702567 -0.9782168
H -0.046089202 1.2570058 2.6815073
H -1.3571864 -1.3052566 -1.5930548
