16

O 0.026860543 -0.13418455 2.0579653
C 0.066545516 -1.2920489 0.6278041
C 0.41858858 -0.28752577 -0.46374443
C -0.06611451 1.1665721 1.4369302
C -0.31784484 0.9900666 -0.07872337
C -0.040547613 -0.85836744 -1.8174582
H -1.3842567 0.89130145 -0.27455053
H 0.47116897 -1.808022 -2.0340133
H -0.77062714 -0.75212324 1.6642561
H 0.034622364 1.8678582 -0.6427177
H -0.84482783 1.7679156 1.9224899
H 0.92114925 1.6196808 1.5941304
H 1.4957227 -0.07261299 -0.5051163
H 0.19962223 -0.15673937 -2.6251624
H -1.1265193 -1.0512316 -1.798429
H 0.91645813 -1.8905386 0.9363391
