15

C -0.07132298 -0.57017636 -0.15314119
C -0.9361645 0.57581 1.7740449
C 0.20527363 -0.13632631 1.1861243
N 0.50201535 -1.5772228 -0.9363048
C 1.093611 0.9165887 -0.15986712
N -1.3440652 -0.12870044 -0.3826903
C -1.8255129 0.54230976 0.7290718
H 0.83697 -1.2763551 -1.8524874
H -1.8085064 -0.29580173 -1.272708
H 1.1602117 1.7402476 0.5512184
H -2.8384476 0.94540155 0.68023956
H 1.0917897 -0.4643565 1.7268376
H 1.2257006 -2.071204 -0.4552551
H 0.63794 1.2883927 -1.0705345
H 2.0705078 0.5113931 -0.3645479
