15

C 0.91691124 -0.835638 1.1208895
O -0.42509976 -0.68060416 -1.6721528
C -0.018669724 0.6912855 -1.3202138
C -0.5852479 0.66248393 0.08597806
C 0.15476313 -1.6488464 0.3209092
C 0.44713444 0.59798735 1.230617
C -0.9671625 -0.7841653 -0.1495168
H -1.4096462 1.3753735 0.24919617
H 1.0650678 0.84345764 -1.3939801
H -1.9911324 -1.1385143 -0.1768568
H 1.2382843 1.3289891 1.0870843
H 0.2573525 -1.4797031 -1.1655385
H 1.851878 -1.1306734 1.6138879
H -0.026260909 0.8154208 2.185824
H -0.5081722 1.3831472 -2.016127
