16

C -0.37741494 -1.3569189 -1.3525025
C 0.31229994 -0.6831066 -0.2734825
C -0.019702708 0.7652008 1.7996349
O 1.4358312 -1.1549473 0.15082529
C -0.68017036 -0.16621965 0.79098916
C 0.6220847 0.66709316 -1.2338427
H 0.92626536 0.33374137 2.096962
H -1.2567861 -0.8940194 -1.8183521
H 0.17116465 1.7759906 1.3912828
H 1.2838603 0.40553996 -2.0695024
H 1.1836151 1.258722 -0.50664353
H -1.0639553 -1.0519549 1.3212585
H -0.6694059 0.9071946 2.6898708
H -0.02198268 -2.3204646 -1.73195
H -0.27068716 1.2074168 -1.5901055
H -1.5750161 0.3067322 0.33555785
