15

O -0.19187382 -2.0870104 0.65102524
C 0.7492526 1.0162864 -0.44621822
C -0.6587772 1.0424557 -1.0047134
C 0.5861456 -0.99254316 0.33811307
C 0.2676965 0.4259609 0.9038784
C -1.1355468 0.7999746 0.4303338
C 0.5383818 -0.37988266 -1.0539058
H -1.0978601 -1.8915778 0.4143045
H 1.6192175 -1.2643396 0.58602345
H 1.5744005 1.6299045 -0.68379307
H -1.9710134 0.12994371 0.6325905
H -0.5746759 -0.21746776 -1.5255983
H 1.0897107 -0.698158 -1.9356544
H 0.61722904 0.6964437 1.9103279
H -1.4122872 1.7900099 0.7832866
