16

C 0.5312894 0.31391922 0.13220483
O -0.7793418 -0.5044609 0.043168455
C 1.0012579 0.4235399 1.5271037
C -1.9329405 0.29818428 0.21839173
C 0.04244082 -0.5078851 -1.6066947
C 1.3126585 -0.49224037 -0.87280166
H -1.7865115 1.2566917 -0.28470668
H -0.21581241 0.38777664 -2.1729674
H -2.0832105 0.49438584 1.2856848
H -0.4812957 -1.4107767 -1.8954396
H 1.9465035 0.9909299 1.5480366
H 2.1003947 0.06373751 -1.3617443
H 0.3017129 0.9978327 2.1535819
H 1.6359057 -1.5092428 -0.56765115
H -2.7890606 -0.2598939 -0.17958973
H 1.1960088 -0.5424979 2.0334232
