15

O 0.9462123 2.280449 1.0555192
C -0.22928183 -1.4616845 -0.4260724
C 0.33404762 -1.3239677 0.8004782
C 0.84386146 1.1530752 0.47175056
C -0.67106485 -0.2567298 -1.1632584
C 0.7128019 -0.076001115 1.3178877
C -0.6191634 1.0097101 -0.3604527
H -0.6416059 1.9294726 -0.938669
H -0.39628124 -2.4469604 -0.870167
H 0.84722 0.038232505 2.3887236
H -0.051249843 -0.14548802 -2.0895462
H -1.4012653 1.0508362 0.3784221
H 1.5161797 0.85631347 -0.38970625
H 0.49865812 -2.2250156 1.3949786
H -1.6890686 -0.3822422 -1.5698876
