15

C -0.14898644 1.18586 -0.12415582
C -0.47827467 -0.8853893 1.0025214
C -0.6912072 0.58319163 1.1220506
O -0.5449609 -1.5853243 -0.23273183
C 0.29362878 -1.0263313 -1.1249912
C 0.7149627 0.0064029247 1.0409602
C 0.85451144 0.18538582 -0.57060695
H -0.9412257 0.09576351 -2.0036576
H 0.052799042 2.2369428 -0.107690625
H 1.7916309 0.5407655 -1.0395207
H -1.2217163 1.0930195 1.914388
H -0.7841274 -1.5275851 1.8327788
H -1.1120805 0.72292614 -1.5933897
H 1.5552756 0.08631995 1.7441359
H 0.65977013 -1.7119478 -1.8600898
