15

C -0.6791655 -0.84847087 0.40462443
C -0.011675403 -1.9411181 -0.46232936
C 0.38473424 -1.0403404 -1.4880809
O -1.3507068 0.064564 -0.52245796
C -0.014131018 0.33916926 -0.96813715
C 0.47576874 0.18498182 0.5023177
C 0.173599 1.3842404 1.3897966
H 0.09037331 1.2323539 -1.581138
H -0.5882198 -1.7905048 -1.6794581
H 1.4851586 -0.2135643 0.6394627
H -1.3057817 -1.1426263 1.2689807
H -0.828283 1.7612435 1.2179139
H 0.8837933 2.1935244 1.1930776
H 0.2732196 1.1112818 2.4407282
H 1.0113169 -1.2947344 -2.3553007
