15

C -0.22702 -0.55956864 0.9357873
C -0.27273977 0.73106325 1.6661165
C 0.18661045 1.6997437 0.78783923
O 1.1869171 -0.5723201 1.023822
C -0.47163242 -0.18512748 -0.5245654
C 0.4719566 1.0053128 -0.38577053
C -0.04918941 -1.262108 -1.511353
H -0.45789286 0.84974915 2.7295349
H -0.7599733 -2.0701501 -1.5157943
H 0.030814096 -0.8517549 -2.514843
H 1.0684359 1.3935853 -1.1896824
H 0.947794 -1.6313226 -1.194191
H -0.7289897 -1.4254068 1.3771834
H 0.5602494 2.6952298 1.0581216
H -1.4853401 0.18307501 -0.7422051
