15

O -1.0290866 1.4585342 1.5060173
C 1.2279812 -0.9719893 -0.48203212
C -1.2452655 -0.82202566 0.6234877
C -0.63590676 0.48764157 0.5786001
C 0.44974133 -0.24529521 -1.4015778
C -0.19669819 0.95402455 -0.8421294
C 0.12425111 -0.78865105 0.9501649
H 0.29566145 -0.5594631 -2.4404452
H 0.50304675 1.7943927 -0.81431663
H 1.4630234 -1.9870819 -0.72107846
H -1.0804827 1.2882313 -1.4002566
H 2.0119643 -0.4773033 0.0642992
H -0.37562418 2.180204 1.4717522
H 0.6219491 -1.0625802 1.8744195
H -2.1345546 -1.2486383 1.0330955
