15

O 0.1632659 2.6496367 -1.4616554
C -0.2930886 -1.0590633 0.98095965
C -0.36623895 0.5693942 -1.8115784
C 0.0046471204 1.5590577 -0.82984066
C -0.0693279 0.3573778 1.4123797
C 0.0670178 1.4638274 0.6449127
C 0.18573657 -1.3860048 -0.40623516
H 0.22825198 2.4215336 1.120691
H -0.44911653 -0.85892713 -1.1836478
H 1.2283531 -1.1207128 -0.5566129
H -0.03612655 0.52259845 2.4817202
H 0.46970788 0.3312445 -2.4762664
H 0.21472138 -1.7201004 1.7050323
H 0.010423927 -2.4214444 -0.6991566
H -1.3582273 -1.3084179 1.0792979
