16

C 1.164706 -0.33884948 1.34786
C 0.03136962 0.3192865 -1.8605069
C 0.17640245 0.6761654 0.7709226
C -0.50289917 0.15195881 -0.51507026
C -1.529181 -0.9099037 -0.32983202
O -0.86286056 1.218435 -1.4235969
H -1.0920233 -1.8123472 0.0998454
H -1.9859079 -1.1612564 -1.3072786
H -2.3281925 -0.56709725 0.34410924
H 1.099769 0.65649253 -2.2539368
H 0.6790909 1.6019851 0.517742
H 0.68641573 -1.2793406 1.6235206
H -0.6170666 0.884759 1.4929799
H 1.6286974 0.07813887 2.2558312
H 1.4793303 1.0311655 -1.4125422
H 1.9723493 -0.54959226 0.64995265
