15

C -0.7739669 0.39505678 -0.73468983
O 0.3315539 -1.4723359 -1.3567802
C -0.74382263 -0.606173 -1.8111382
C 0.5618705 0.52372384 -0.1506243
C -0.28316933 0.3140733 2.1727774
C 0.59773785 0.8435629 1.3253717
C 0.9071005 -0.92956054 -0.3645692
H -0.25183034 0.54950744 3.2338746
H -0.42447188 -0.25330508 -2.8079898
H 1.3226134 1.112705 -0.68364626
H -1.6225435 -1.2339729 -1.9178979
H 1.3647486 1.5098054 1.6981014
H -1.5125786 1.1751502 -0.6565061
H -1.0401286 -0.3502571 1.8295617
H 1.5668873 -1.5779804 0.2241553
