15

C 0.6975501 -0.40154412 -0.10406224
N -0.24910246 1.0997016 1.375147
C 1.2705661 -1.026427 -1.3282996
C 0.5400536 -0.90604734 1.1713209
C -1.7148603 1.0330927 0.2683497
C 0.15449727 0.8819642 0.04491833
N -0.035191655 -0.04188352 2.0344994
H 1.9505669 -1.8482976 -1.0404242
H 0.51993376 -1.4669447 -1.9874713
H -1.8331549 0.73324203 -0.77235204
H 1.8527409 -0.312971 -1.907511
H -2.261977 0.32993343 0.8997549
H -2.0260332 2.061474 0.39464542
H 0.8535375 -1.883057 1.5377829
H 0.28087342 1.7477641 -0.58629763
