15

C -2.2026508 -1.2591892 0.87709564
N -0.94818485 -1.0299772 0.1922193
C 0.8529217 0.43484494 -0.36164218
C 1.5243738 1.7789907 -0.2794861
C -0.41509318 0.12650512 0.32144395
C 1.2833937 -0.66610396 -1.0253851
N 1.0817505 -1.8372318 -1.3207248
H 2.2690897 1.8405312 0.5152585
H -2.9485335 -1.6215404 0.14466304
H -2.0706794 -2.0610652 1.6087348
H 2.0129125 2.0854423 -1.2058816
H -2.5941424 -0.38223264 1.3988832
H -0.8590477 0.94211787 0.8710766
H 2.2314348 -0.9082136 -1.679092
H 0.7824548 2.5571218 -0.05716339
