16

C 0.97941494 0.32149774 -0.5941853
C 0.3447557 0.902123 1.1873258
C 1.0745322 -1.1446555 -0.91473746
O 1.5749367 0.69465035 0.6630955
C -0.456418 0.8053509 -0.091631465
C -1.6549094 0.047967736 -0.18938605
H -1.3504913 -0.53364885 1.4744357
H 0.52987003 -1.3785691 -1.8318057
H 1.3743908 0.9776666 -1.3729525
H -0.5871255 1.8673902 -0.31250626
H 2.1065762 -1.4228328 -1.0448954
H -0.6483405 -0.50126046 1.9553357
H -1.6187259 -1.0089691 -0.46810904
H -2.5758517 0.53360194 -0.41907233
H 0.6806026 -1.7388223 -0.07279014
H 0.2267831 1.5785097 2.0318787
