15

C -1.9225672 -0.3907345 -1.184647
C 0.61152875 -0.6680682 0.12613177
N 1.7078407 -0.9859997 0.82926106
C -1.0206958 0.784705 -0.87701064
C 2.2702498 0.83150935 1.4211493
N 0.27297425 0.52601033 -0.21460587
C 2.0979106 -0.28491622 2.0089664
H 0.028552348 -1.5418638 -0.15662841
H 2.2185204 -0.7357398 2.986486
H 2.5704398 1.7328382 0.9361465
H -2.226197 -0.91664416 -0.2682415
H -1.5436811 1.5145792 -0.267785
H -0.7847163 1.3095526 -1.8181328
H -1.4531404 -1.1302062 -1.8402623
H -2.8270195 -0.045022245 -1.6808282
