16

O -1.9696374 -0.10716959 1.1436895
C 1.0433959 -1.6065253 0.05360303
C -0.3196929 1.2561802 0.23961085
C 1.6104373 -0.43807304 -0.63069385
C 0.088038184 -0.6137638 -0.5580126
C -1.7474154 1.052194 0.5315383
H 1.0774963 -1.6375291 1.1317616
H -0.86895245 -0.61696047 0.2519895
H 1.0673466 -2.5764625 -0.4253416
H -1.7101322 1.9901866 1.1617204
H -0.3677003 -0.8100851 -1.5185969
H 0.024333313 1.9741517 -0.49764824
H 2.0548334 -0.5729844 -1.6019279
H 0.32867214 1.05369 1.0728904
H -2.406848 1.3239064 -0.32628208
H 2.0958257 0.3292452 -0.02830052
