15

O 2.7693408 -0.5163761 0.968211
C 1.6242102 -0.16012295 0.6833321
C 0.6692968 -0.7871753 1.5581766
C -1.4593099 -0.19093765 0.46375194
C -0.90832263 -0.07502947 -0.94969726
C 0.23046428 0.9102991 -1.0776544
C 1.3444961 0.87325 -0.34207672
H 0.48581198 -1.8448819 1.3334092
H -0.67861253 -0.21737401 1.3085188
H -2.0864944 -1.0747688 0.6031282
H -2.0215394 0.70277065 0.75337756
H -0.5625308 -1.058338 -1.2943377
H -1.7233543 0.21487933 -1.6215404
H 0.14692514 1.66834 -1.8541291
H 2.1696188 1.5554649 -0.53246975
