16

C -0.25170767 -0.75803363 -1.9028432
O 0.03384812 0.45914626 -1.2525862
C -0.040987387 0.39039165 0.6010109
C -1.299046 1.0153407 0.6727072
C 0.67246497 -0.814345 1.064331
C 1.3325901 0.5598255 1.1038768
H -0.5011674 -0.5658499 -2.9522235
H 0.6311196 -1.4095572 -1.8731407
H -1.0956658 -1.2834375 -1.425977
H -2.1598682 0.3968506 0.9208244
H -1.3316832 2.0453131 1.0217377
H -0.9400108 0.94430244 -0.75987613
H 0.3189826 -1.2595371 1.9914237
H 1.0575567 -1.5267878 0.33956134
H 2.128296 0.7435598 0.38983953
H 1.4452789 1.062818 2.0613344
