15

C -1.3959162 -0.9909039 -1.1257513
N 0.44611034 -1.1329347 -1.2757162
C 0.11081143 0.17787549 -0.8869389
C 0.526921 0.3918764 0.43522727
C 0.5023546 1.6570323 1.2397507
C 1.0546306 -0.8471071 0.7766293
N 0.96895957 -1.7514323 -0.21808948
H -1.5326176 -1.5377655 -0.19635311
H -1.5391246 -1.612752 -2.0058663
H -2.0612884 -0.12518258 -1.1786653
H -0.11233301 0.9167866 -1.6482602
H 0.7922966 1.4633683 2.277249
H -0.48872322 2.1236117 1.2534113
H 1.2067115 2.3941476 0.836339
H 1.521207 -1.1266205 1.7170336
