15

C -0.72694695 0.85252947 0.4061712
C -0.0053650155 1.1127299 -0.8412461
C 0.8157732 -0.07916641 -1.1732982
O 1.5877202 -0.7346111 -0.22647452
C 0.7739662 -1.0860364 0.87788767
C -0.5631366 -0.6254816 0.6090108
C -0.65814847 -0.2882124 -0.97209233
H 0.50963676 1.1172605 1.9168022
H -1.7108072 1.313431 0.508823
H -0.1991268 1.9419662 -1.5092865
H 1.2344772 -0.10008389 -2.1749318
H 0.89169645 0.38478822 1.9642776
H 0.9181853 -2.1341121 1.1431776
H -1.3958815 -1.1194271 1.1033021
H -1.4720426 -0.5555745 -1.6321225
