15

C 0.49932134 -0.8813439 1.0561519
C -1.2535578 1.2346938 1.0359659
C -1.8805251 0.58219683 0.000585163
N -1.0146208 -0.05665522 -0.9127003
C 0.25621942 0.13206233 -0.47836208
N 1.3291485 -0.1570624 -1.3578848
C 0.13026308 0.962637 0.6976061
H 1.1186649 -1.5943652 0.5005126
H 1.028049 -0.6161555 1.9726933
H -0.48555955 -1.2778264 1.2923715
H -2.9439838 0.48629206 -0.20956135
H -1.2602708 -0.72994715 -1.6243839
H 1.25297 0.41892433 -2.1907992
H 2.2179074 0.055988602 -0.91616493
H 1.0059745 1.4405609 1.1339701
