16

C 1.6485907 -0.5393798 -0.42193466
O 0.3762446 -0.21846482 -1.01409
C -0.81074715 -0.1644085 -0.092543885
C -1.0536398 -1.389738 0.7273203
C -0.61916614 1.1855061 0.48747784
C -0.2630183 1.5048722 -0.91787803
H 2.415395 -0.4047123 -1.1884702
H 1.8663746 0.09994003 0.4425978
H 1.6268587 -1.5848212 -0.102505274
H -2.0224864 -1.2846277 1.2300617
H -1.1171263 -2.292046 0.10679361
H -0.30373073 -1.5748858 1.52305
H -1.5604725 1.6424121 0.80914295
H 0.17811531 1.3970773 1.2275558
H 0.7014694 1.943301 -1.1906047
H -1.0626612 1.6799759 -1.6259732
