16

C 1.4786642 0.017059067 1.0492716
C 0.11641623 0.6505844 0.7719791
C -0.60083663 0.04005876 -0.41369957
C -0.096591234 0.43924046 -1.7803593
C -1.4469484 -1.1586171 -0.32735884
O -2.0505564 0.049332332 -0.27679265
H 2.152023 0.11116411 0.18976136
H 1.3705348 -1.0489076 1.280254
H 1.9637493 0.5003632 1.903254
H 0.23936437 1.7265435 0.58428025
H -0.5380728 0.54003197 1.6452305
H -0.14016925 1.5281348 -1.8977513
H 0.9448168 0.12368816 -1.9081377
H -0.69611466 -0.024519097 -2.56697
H -1.1269455 -1.5000291 1.2359041
H -1.5693338 -1.9941278 0.51113456
