16

C -1.1888813 -0.8045436 1.3279496
C -1.1297411 -0.24793972 -0.09145898
C 0.27133587 0.122010864 -0.5554559
C 1.038358 1.1398035 0.26205885
C 1.0776688 -0.6216295 -2.0792782
O 0.22443572 0.48190576 -1.9296533
H -0.85697997 -0.06927279 2.0691495
H -0.5602615 -1.6970582 1.4321426
H -2.2133057 -1.0911489 1.5842185
H -1.743209 0.6575314 -0.17963126
H -1.5255762 -0.9714119 -0.8114648
H 0.4269764 2.0423238 0.37305203
H 1.2840633 0.7611282 1.2590191
H 1.9657193 1.4136629 -0.24774742
H 0.82754207 -0.90344524 -0.5627823
H 2.101855 -0.21191677 -1.850118
