16

C 0.7560725 1.6822925 -0.545898
C 0.3385186 0.4855602 1.4648557
C 0.72575545 0.19987513 0.117474295
O 1.7476653 -0.4927667 -0.20847033
C -0.6620767 -0.4063994 -0.534114
C -0.8840747 -1.8520348 -0.12132633
H -0.15359932 2.2677963 -0.3941802
H 1.6261599 2.2150545 -0.1605127
H 0.9078542 1.4724399 -1.6060371
H -0.5438107 1.0834767 1.6774175
H 0.9135423 0.1151947 2.3143218
H -0.43303534 -0.34724036 -1.601951
H -1.5280764 0.22861792 -0.32317254
H -1.2244337 -1.9345522 0.91643965
H -1.6404077 -2.3154607 -0.7645771
H 0.053946897 -2.4018536 -0.23026949
