15

C 1.3948829 -1.3747087 -0.30721876
C 0.42140022 -0.23370072 -0.52421105
C -0.9454408 -0.3521886 0.22075923
O -0.28306428 0.062410496 1.432907
C 0.47758248 0.9167356 0.5255318
C -0.54159635 1.9207149 -0.07548847
C -1.5704314 0.9778754 -0.21382765
H 1.111696 -2.2490466 -0.9040056
H 1.418915 -1.6636161 0.74724555
H 2.4055047 -1.0797542 -0.6105819
H 0.37093717 0.072357364 -1.5749911
H -1.5342103 -1.2675998 0.3065657
H 1.4058737 1.2912941 0.95845807
H -1.6016762 1.8465933 0.722435
H -2.530373 1.1326336 -0.70357794
