15

C -1.1404159 -1.4180527 1.4584253
C -0.4936202 -0.50967216 0.4593344
C -1.1446191 0.25851098 -0.44456607
N -0.13027906 0.9159091 -1.2600762
C 1.1582341 0.6257719 -0.59992325
N 1.9015453 1.6056896 -1.1016421
C 0.9495845 -0.32121047 0.36469576
H -0.69139105 -2.4159737 1.4041418
H -0.9863099 -1.0481266 2.4786077
H -2.2168865 -1.5107106 1.2867621
H -2.186628 0.29674 -0.7270485
H -0.11267007 0.5011573 -2.194145
H 0.5587285 1.9709371 -1.4051541
H 2.861146 1.7203964 -0.8070179
H 1.6735816 -0.6713664 1.0876063
