15

O 2.4135675 0.9369671 0.034922034
C 1.3037802 0.3865183 0.0808533
C -0.060148157 1.431623 -0.3585512
C -0.3878782 0.2619242 -1.0751406
C -1.1248211 -0.8277062 -0.34913245
C -0.4671784 -1.0290952 1.0120612
C 0.69598085 -0.43195915 1.2215902
H -0.6089709 1.670156 0.54756224
H 0.3529343 2.2748811 -0.90325415
H -0.23510003 0.19676337 -2.1495807
H 1.1056521 -0.4402339 -0.8023444
H -2.1689272 -0.51585686 -0.21004936
H -1.1383264 -1.761045 -0.9249893
H -0.96643174 -1.650914 1.7473326
H 1.2858671 -0.50202304 2.1287208
