16

C 0.43741792 -1.7253705 0.24366315
C -0.55778635 -0.73358727 -0.3183154
C 0.44436532 0.6747349 -1.1280558
O 1.501015 1.614848 -0.889959
C -0.30212444 0.8193274 0.531485
C -1.4145538 -0.15738402 0.73810035
H 0.8160505 -1.5132194 1.2589167
H -0.10558092 -2.6774318 0.29861677
H 1.3001575 -1.8771018 -0.41602784
H -0.29917657 1.0786058 -1.8172461
H 1.0011722 -0.12942146 -1.6001058
H 1.1184059 2.458934 -0.6136146
H -0.65095556 1.8209522 0.28723818
H 0.5120704 0.7973404 1.2494801
H -1.3918328 -0.64503187 1.715528
H -2.4086447 0.19380553 0.46029592
