15

O -0.18788819 -0.5572095 2.263796
C 0.19563684 -0.1849399 0.9808048
C 0.03745579 -1.3324273 -0.11967188
C -0.23473282 -0.57100797 -1.3405566
C -0.2978879 0.88254786 -1.2657661
C -0.003960203 1.1666425 0.27700853
C 1.2622722 0.6864762 0.6993464
H -1.0816656 -0.91943485 2.2103431
H -0.7542696 -2.084454 0.061560713
H 0.98428416 -1.8722795 -0.027124004
H -0.8926643 -1.0455623 -2.0688956
H 0.49702868 1.4707344 -1.733934
H -1.2456967 1.2653722 -1.6835582
H -0.4891041 2.0647225 0.66440445
H 2.2111917 1.0308198 1.0822424
