15

O -0.4995224 -1.9916008 1.1375751
C -0.44105273 -0.7073735 0.61965305
C 0.49895972 0.38064036 1.1158277
C 0.0730802 1.2795926 -0.05898176
C 0.60240793 0.49938145 -1.282191
C -0.5004305 -0.47973925 -0.89975214
C -1.349062 0.66769236 -0.3793734
H -0.0034980713 -2.573063 0.54769075
H 1.565316 0.12252062 1.1358382
H 0.19817187 0.77117753 2.092471
H 0.19859362 2.3581245 0.050196376
H 0.36994666 0.99859583 -2.2270794
H 1.6526535 0.18130374 -1.2804537
H -0.898411 -1.2951955 -1.5064847
H -1.4671527 -0.21205723 0.9350642
