16

O 0.7428508 1.7430536 1.4524764
C 0.019046672 2.093515 0.43360186
C -0.8863909 1.044274 -0.062944144
C 0.5528092 -0.4444271 -0.2709172
C -0.45211473 -1.6013981 -0.4180331
C 0.89459884 -1.9092592 0.07850744
H 0.7823211 0.19855687 0.64903885
H 0.4859757 2.6697836 -0.39678147
H -0.96052825 2.6916628 0.657631
H -1.3731303 1.116595 -1.0385747
H -1.4571174 0.54475 0.71530044
H 1.0195512 -0.10041537 -1.1903461
H -1.282844 -1.6392395 0.28154147
H -0.7101965 -1.8784187 -1.4361844
H 1.0270076 -2.128504 1.132977
H 1.5981613 -2.4005282 -0.5872931
