16

O 1.4453126 -1.284247 1.2854811
C 0.772827 -0.13222387 1.7563359
C -0.41518015 0.25322106 0.872437
C 0.060883507 0.44814363 -0.5576861
C -1.0157677 0.46543148 -1.6681387
C 0.4874946 -0.7155015 -1.3545336
H 1.9376763 -1.047662 0.48633796
H 1.4645791 0.720986 1.8417798
H 0.42943096 -0.37613115 2.7663617
H -0.8811033 1.1659843 1.2683631
H -1.1639091 -0.5493117 0.9034553
H 0.7235448 1.317234 -0.6423148
H -2.0033813 0.20262104 -1.2901088
H -1.0009172 1.3951341 -2.235463
H -0.12976769 -1.5595958 -0.98604774
H -0.7117226 -0.30408248 -2.4462593
