15

C 0.820292 -1.7814347 -1.8222245
N 0.26701683 -1.2007812 -0.6239569
C 0.23110868 0.067934565 -0.48092884
C -0.33565682 0.68484074 0.7096223
C -0.4099219 2.1567242 0.9910114
C -0.7318985 -0.34953713 1.4890363
N -0.84655595 -1.5719211 1.6645653
H 0.030670494 -2.2969809 -2.382152
H 1.566621 -2.5362902 -1.550408
H 1.2957554 -1.0453554 -2.4900193
H 0.6192901 0.7583023 -1.245011
H -1.2792724 2.4051695 1.6089453
H -0.5173184 2.715689 0.054844365
H 0.48089707 2.5449967 1.5016291
H -1.1910274 -0.5513559 2.5750458
