16

C 1.8505292 -0.30769837 -0.006816351
C 1.019526 0.7622261 0.7010436
C -0.45721966 0.3850538 0.85306334
C -1.1339095 0.19990574 -0.48219287
C -1.1817771 -1.1217146 -1.1480317
O -2.5130653 -0.23684971 -0.41960227
H 1.5123143 -0.46804637 -1.0368391
H 1.7768316 -1.2695179 0.5130344
H 2.9070585 -0.022446185 -0.045815706
H 1.0966405 1.7125984 0.1544672
H 1.4375379 0.95005363 1.69728
H -0.98929965 1.1657375 1.4118096
H -0.5513007 -0.55153644 1.4175448
H -1.1061124 1.0876054 -1.1194057
H -1.3626523 -0.9958252 -2.225317
H -2.3051016 -1.289546 -0.26422226
