16

C -0.5672894 0.34894648 1.3989179
C -0.39836073 0.51589715 -0.07825853
C 0.3536228 1.7447879 -0.50303245
O 1.4253792 0.8060658 -0.4759009
C 0.53363806 -0.4133998 -0.86019397
C 0.649893 -1.7147847 -0.34803373
H -0.89214164 -0.6634153 1.6515721
H -1.3026338 1.0731735 1.7654808
H 0.38691658 0.54502845 1.9080906
H -1.6680691 -0.7067287 -0.47894573
H 0.49422544 2.5354753 0.23676117
H 0.14445047 2.1395636 -1.5039035
H 0.3822819 -0.35325006 -1.9407636
H 0.8482888 -1.8740665 0.70772475
H 0.8520996 -2.5449233 -1.0154468
H -1.242301 -1.4383698 -0.46406817
