15

C 1.1385275 -1.5988762 0.027161993
C 0.70912886 -0.14404668 0.08840555
C -0.21066569 0.2741548 -1.0434561
O -1.3485854 -0.50344396 -0.7604631
C -0.4005448 0.19254263 1.076015
C -0.9668454 1.4476295 0.7854739
C -0.85614794 1.5475389 -0.5849624
H 1.8892401 -1.7401321 -0.75816643
H 0.271183 -2.2247317 -0.19781955
H 1.5834228 -1.9262564 0.97382355
H 1.5752518 0.51217407 0.2661109
H 0.1599442 0.23506272 -2.0769074
H -0.5703619 -0.35086223 2.0046163
H -1.6280406 2.0110097 1.431967
H -1.3455069 2.268237 -1.2317994
