15

O 2.3664193 -0.8688683 -1.2762164
C 1.2467552 -0.43458623 -0.8645453
C 0.116839625 -1.2530603 -0.45938355
C -1.1608065 -0.6954091 0.03886928
C -1.1001247 0.817479 0.273077
C 0.22515239 1.1494368 0.9062254
C 1.2984681 0.5352 0.43033165
H 0.6726292 0.28758693 -1.5572424
H 0.22785683 -2.340753 -0.48607105
H -1.9656813 -0.96892357 -0.6606645
H -1.4061158 -1.2191696 0.9750595
H -1.175232 1.3383907 -0.6952439
H -1.9506254 1.1438115 0.8777094
H 0.28562373 1.8710916 1.7167412
H 2.3188412 0.637774 0.78135324
