16

C 2.4879339 0.021088706 -0.2477833
C 1.2902433 0.8861575 -0.0029109865
O 0.11842815 0.5547025 -0.6509213
C -0.39534953 -0.25569752 0.3813851
C -1.9239594 0.06839801 0.58562845
C -2.3623607 -0.55782425 -0.62259114
H 3.2937186 0.28109762 0.44608283
H 2.8734763 0.15272425 -1.2719314
H 2.2554543 -1.0427324 -0.12468178
H 0.31792644 0.14978383 1.2523677
H 1.4555091 1.9646286 0.070886835
H -0.19096427 -1.3230071 0.21996029
H -2.248908 -0.4154455 1.5104797
H -2.0143461 1.1554545 0.6520787
H -2.6472292 -1.6045965 -0.62814444
H -2.3095727 -0.03473247 -1.569905
