15

C 1.4577657 -0.5450044 -1.1918582
O 0.82075185 -1.7700837 -0.80031806
C -0.4190392 -1.0509533 -0.5514213
C -0.4677834 -0.7576693 0.9123106
C -0.946172 0.4401161 1.4517173
C -0.61313397 1.6722436 0.94523996
C 0.19059621 0.23005371 -0.93625796
H 2.3578546 -0.3162634 -0.6079766
H 1.721854 -0.5757639 -2.259961
H -1.2793523 -1.5429586 -1.022701
H -0.1732898 -1.5870605 1.559997
H -1.5996096 0.3795777 2.3280523
H -1.2299819 2.551522 1.1366183
H 0.39218438 1.8559556 0.5962925
H -0.21264453 1.0162882 -1.5597335
