15

C 1.3649503 -1.9173826 -0.44956282
C 0.5421386 -0.80027926 -1.0829643
N 0.05341205 0.11741293 -0.067617804
C -0.12924722 2.084368 1.4452761
C -1.3331311 2.4295459 1.1990252
N -1.8355113 1.1720626 0.83528155
C -1.2170131 0.29507768 0.019309022
H 1.7823638 -2.5796738 -1.2163693
H 2.1904726 -1.4981788 0.13545266
H 0.7434959 -2.5163183 0.22467943
H -0.28002375 -1.2332116 -1.6774576
H 1.1727034 -0.23866488 -1.7849385
H 0.83577746 1.690243 1.6759855
H -1.9599024 3.3107004 1.293801
H -1.9304854 -0.31570107 -0.5499
