15

C -0.58499235 -0.91911316 0.9781259
O 0.53737295 -0.26858667 1.7260658
C 0.40100816 0.9267629 0.74066937
C 1.5781785 0.54338914 -0.10832066
C 1.0438963 0.11452003 -1.2698634
C -0.48147425 0.16914588 -1.3714024
C -0.8591333 0.3125639 0.110978976
H -0.20786671 -1.8027081 0.45905972
H -1.3449795 -1.1826766 1.7128253
H 0.3832881 1.8622531 1.3010114
H 1.5036201 -0.4439494 1.2445627
H 1.6169789 -0.36761084 -2.0623033
H -0.87124753 1.0109991 -1.9608755
H -0.8949395 -0.74554956 -1.819214
H -1.8197101 0.7905605 0.31868032
