16

C 1.1205938 0.5723131 1.1278102
C 0.17372523 0.055477746 0.06275914
C -1.1992197 0.640006 0.29275855
O -1.9041414 0.25491264 1.3370438
C 0.30623695 -1.3485014 -0.42934915
C 0.66001636 -0.19223624 -1.332237
H 2.1155548 0.13500887 0.99647284
H 1.2219124 1.6632422 1.0753996
H 0.74666613 0.3053439 2.1208289
H -1.9086821 0.102454446 -0.87366366
H -1.2746291 1.6973324 -0.031739704
H -2.2650037 -0.04744907 0.027521402
H -0.60221267 -1.906212 -0.6458795
H 1.1116221 -1.9528916 -0.020941233
H 1.7088101 -0.0033742096 -1.545551
H -0.01124899 0.02457335 -2.1612334
