19

C 0.766291 0.29932863 1.5421208
C 0.95372605 1.7893918 -0.46222413
O -1.0943097 -0.6160256 -1.1295974
C -1.1787343 0.41744983 -0.15446667
C 0.49586886 -0.70105803 -0.8053115
C 0.31848362 0.5202541 0.09302718
C -0.8763579 -2.1807306 -0.39595664
H 0.6656854 2.6713424 0.14512123
H 1.8294922 0.2008884 1.5858955
H -1.7595896 0.09185196 0.70030385
H -1.9732045 -2.3022985 -0.29640707
H 2.0323052 1.7285188 -0.4630984
H 0.9828845 -0.49234578 -1.7517208
H 0.31119204 -0.6168297 1.943476
H 0.6218512 1.9817495 -1.5010569
H -0.49027663 -2.846443 -1.173403
H 0.46339592 1.1410692 2.1712296
H -0.39372814 -2.370148 0.55436355
H -1.6749752 1.2840348 -0.60229516
