18

C -1.2371447 0.8978304 0.05586616
C 0.15762079 -0.21980458 -1.8423132
C 0.06338643 0.76889944 -0.71221477
C -0.97068375 1.3456281 1.4877094
C 0.87715805 -0.47679117 -0.56176907
C 1.0321174 -2.5912328 0.8836418
H -0.7236466 -0.8353759 -2.0353892
H 1.6585811 -1.9789692 1.5428976
H 0.42730546 -1.3088527 0.121406116
H 0.7201381 0.013478883 -2.73485
H -1.8727841 1.6419677 -0.45762452
H -0.43606737 2.3054574 1.5081314
H 1.7015855 -2.9269524 0.07661265
H 1.96857 -0.35700926 -0.5675565
H -1.7603347 -0.038220637 0.054195184
H 0.6469025 1.6826366 -0.8500653
H -1.8996497 1.4709789 2.0412564
H -0.3530541 0.6063312 1.9900657
