18

C -0.8273457 0.41228575 -0.6493057
C -1.3984398 -0.54946053 1.6538894
C 1.8459367 0.19196172 -0.3405939
C 0.8290513 0.2998779 0.69954103
C -0.4596418 -0.48007098 0.47527903
C -0.010880621 0.28576818 -1.8478706
H -1.3900826 0.012997882 -1.7698803
H 2.095699 -0.8057499 -0.7093129
H -1.62339 0.4467032 2.0342145
H 0.14601623 1.1103112 -2.528533
H 0.31129774 -0.6973638 -2.1788237
H -0.96706676 -1.147476 2.477357
H 2.5457504 0.96627605 -0.5500305
H 0.7518931 1.2680279 1.1979352
H -0.22188452 -1.4890355 0.108568445
H -1.2577022 1.3902359 -0.4379568
H -2.3372307 -1.0367717 1.3553786
H 1.9680196 -0.17851731 1.0101447
