15

C 0.081884615 -1.0679076 -0.6152125
C -0.58915347 1.2865676 0.03384482
O 1.0931083 -1.6558278 -1.3455453
C -0.03438112 -0.17108035 1.8190975
O -0.9418606 0.5003321 1.2637025
C -0.50246775 0.25124112 -1.1250812
O 1.2524691 0.009555846 1.6984642
H 1.7836411 -0.9875359 -1.4810978
H 0.37034795 1.7650392 0.27552775
H -0.36455464 -0.69760346 2.7142417
H -1.3868322 1.9924644 -0.04382108
H 1.347889 -0.20937793 0.74844664
H 0.1009847 0.68587184 -1.9344301
H -0.6876419 -1.8400118 -0.49698472
H -1.5234332 0.13827245 -1.5111525
