19

C 0.48734933 -1.7699834 -0.29306436
C -0.15839607 0.7999697 -0.2591755
C 0.524219 1.4822228 0.988818
O -1.3627533 1.2845906 -0.5429662
C -1.5678596 -0.9476302 0.897175
C 0.8640926 0.9525573 -1.4262512
C -0.3444979 -0.62101066 0.14993972
H 0.9234839 2.023265 -1.6605077
H 0.58133924 2.5383756 0.73698735
H 0.37310725 -2.6367915 0.36117327
H -2.0301278 -0.02050303 1.2432953
H 1.5216262 -1.4781159 -0.4085094
H 0.45193645 0.46168432 -2.3055708
H -2.2816725 -1.4174908 0.22855474
H 1.856484 0.56591386 -1.1995479
H -1.3680379 -1.6683906 1.6923603
H -0.11963996 1.4012942 1.8771137
H 1.5342444 1.1058896 1.2211143
H 0.115102336 -2.0558465 -1.3009385
