18

C -0.84812933 -1.6795207 0.69482917
C 0.93854445 -0.5467656 1.432708
C 0.020081453 1.6709058 -1.5864007
C -1.3051573 -0.87192273 -0.3458163
C 1.0952613 0.20503578 0.19835624
C 0.021277968 0.95618355 -0.25838712
H -0.98103887 1.6435407 -2.0402935
H 0.7063421 1.1982268 -2.2979078
H -1.4048642 -1.7113299 1.618713
H -1.0220689 -1.1020254 -1.376364
H -0.65304 1.3612437 0.48295885
H 0.2972172 2.7369976 -1.4995462
H 1.8711869 -0.12915204 -0.48443252
H 1.6481481 -1.3176286 1.6913435
H 0.3176185 -0.16431779 2.2229688
H 1.7679244 0.5787621 1.2890576
H -2.1895082 -0.2719252 -0.21557637
H -0.2797951 -2.5563083 0.473789
