19

C 1.4775267 -0.3751383 1.5818378
C 0.70515925 -0.20645186 -1.5301956
O 1.9043814 -0.26480964 -1.0034645
C -1.7877954 -0.5184299 -0.52194405
C 0.4577185 -0.76883805 0.5383825
C -0.4898076 1.5279233 0.22242393
C -0.44416904 0.069471315 -0.14369386
H 0.4258722 0.6378039 -2.1999347
H -2.1895514 -0.016656721 -1.4035717
H 0.32072178 -1.8395452 0.40917358
H 2.3164804 -1.0584586 1.5383112
H 0.51636034 1.967586 0.19443516
H -2.524018 -0.38629928 0.2905528
H 1.8091657 0.63910645 1.4343355
H -1.097798 2.0868764 -0.4971478
H 0.28552416 -1.1333462 -1.9250112
H -0.91324663 1.7025714 1.2213488
H -1.7314347 -1.5894245 -0.7468061
H 0.9589107 -0.47394076 2.5409684
