18

C 0.10535648 -0.21966523 -1.101401
C -1.0735765 0.6036603 -0.49810457
C -0.25939578 -1.2047994 -0.02302579
C -0.96819884 2.1353076 -0.5899563
C 1.7035304 -1.7630839 0.8876464
C -0.76049644 -0.072111115 0.8505652
H 1.8879249 -0.73997396 1.1298558
H -1.5915302 -0.28175604 1.5392106
H 1.0256813 0.33025372 -0.9488399
H 0.035719205 -0.56508744 -2.1569047
H 0.59989876 -2.047925 0.4318806
H -1.053704 2.4764738 -1.6160028
H 0.0045361496 0.52746826 1.3592235
H 2.4035618 -2.0937302 0.1024688
H -2.03005 0.26183534 -0.8959235
H -0.0065591065 2.4734437 -0.1980488
H 1.7341212 -2.42801 1.7245817
H -1.7568189 2.6076996 0.0027752158
