18

C 0.9973739 0.52766496 -1.0607617
C 1.2285147 0.78849804 1.4509816
C -0.77371466 -0.19448519 0.2863238
C 0.30808583 0.8307975 0.2330918
C 0.29465878 -2.0422852 -0.38991562
C -1.9590582 -0.11189355 -0.6130169
N 0.08348604 -3.126165 -0.04740714
H 2.089482 0.4976551 -1.0629023
H 0.51199555 0.809871 -1.9856269
H -0.9306744 -0.72189087 1.2377368
H 0.68396145 0.954033 2.3664792
H 2.0133407 1.546285 1.3686812
H 0.7901376 -1.1191429 -0.9361537
H -0.20835194 1.8046806 0.16245331
H 1.7114166 -0.18442243 1.5161065
H -1.6764234 0.2069541 -1.6155094
H -2.6912808 0.61119634 -0.22554845
H -2.472949 -1.0773509 -0.6850115
