18

C 1.1655045 -0.5914995 0.09419415
C -0.21285684 -0.74707633 0.76133555
C -1.1842349 1.6468388 0.7280286
C 0.83796024 -0.14413203 -1.6913399
C 1.2703049 -1.450262 -1.1101481
C -0.67172945 0.45144725 1.558316
H 0.5288713 -2.2587092 -1.23652
H -1.6075028 2.4394286 1.3798695
H 0.00014601182 -1.5869273 1.424102
H 1.5390072 0.31971478 -2.3946059
H 0.98657405 0.5798748 -0.76836735
H -0.40209252 2.0948768 0.13401408
H -1.0137377 -1.0972589 0.06933515
H 2.2759364 -1.785893 -1.4225719
H -1.9895742 1.3205694 0.058519974
H -1.4723194 0.13200833 2.2463827
H -0.20448771 -0.08472869 -2.0255342
H 0.1542312 0.7617283 2.194989
