18

C 0.5411902 -1.135119 0.6390076
C -0.6135736 -1.6289335 -0.20410214
C 0.37274882 1.872236 -1.2375315
C -0.5987998 0.70051867 -1.081395
C 0.05392474 -0.67243755 -1.1060046
C 0.21750712 -0.34234425 1.9086407
H -1.5977992 -1.3580542 0.21175672
H 1.0388869 1.7055986 -2.0790203
H 0.97043216 1.9870396 -0.32504418
H -0.20906131 -1.0087453 2.6544294
H -0.16304202 2.8189476 -1.4048262
H 1.2854275 -1.8913994 0.79124063
H -1.2814337 0.88579553 -0.22446212
H 1.1533483 -0.48245087 -0.14842236
H -1.2562739 0.67901844 -1.9643354
H 1.1281462 0.11274977 2.317046
H -0.4730331 0.45671633 1.7045432
H -0.56859505 -2.6991365 -0.4515199
