18

C 0.65039575 -1.2735788 -0.8466707
C 0.6143346 0.31061855 1.1004461
C -0.57088274 0.9338933 -0.7709729
C 0.5087603 1.9047873 -0.3511019
C -1.4069932 -1.1176982 0.57665485
C -0.2077985 -0.34540665 0.02290465
N -1.3837082 1.2968684 -1.5985893
H -2.0474539 -0.46030492 1.1748713
H -2.0006979 -1.5101794 -0.24538203
H 0.19792756 2.85475 0.07280518
H 1.2012963 1.2632664 0.5612508
H 0.05386215 0.7850135 1.8900099
H 0.0890245 -1.6218004 -1.7015098
H 1.3349284 2.0276423 -1.0817659
H 1.5466733 -0.74873525 -1.2262229
H -1.08646 -1.9485795 1.2087994
H 1.5026903 -0.20811453 1.4811552
H 1.0041012 -2.1424425 -0.26668197
