18

C -1.5465614 0.80023474 0.79032844
C -0.35216606 0.8276174 0.0078048687
C 0.86628926 1.5400577 0.57627666
C -0.19599666 -0.7765228 -0.20165457
C -0.039031338 -1.1459951 -1.6717528
C 0.92623305 -1.2558144 0.81090194
N 1.8521214 -1.9109643 0.3927798
H 0.6149607 -0.92618996 1.8390443
H -2.514727 0.65074867 0.32285386
H -1.5118784 0.85723084 1.8758641
H -0.5538686 1.172408 -1.0136691
H 0.7421998 2.6207135 0.45767567
H 1.7810067 1.2342228 0.059628822
H 0.99733716 1.3292428 1.6425415
H -1.0605419 -1.3052418 0.2320468
H 0.059047043 -2.2265613 -1.7921027
H -0.9173832 -0.8117752 -2.2347605
H 0.85295975 -0.6734116 -2.0938067
