18

C 0.558594 -2.08873 0.64491713
C -0.10991026 -1.23424 -0.42999956
C 0.046838693 0.28249955 -0.2057138
C -2.0966277 2.264411 -1.0979663
C 1.5060909 0.7543462 -0.23840599
C -0.5884355 0.6715412 1.0677977
N -1.0914677 0.9646067 2.0686593
H 1.6470286 -1.9669315 0.64164263
H 0.34465247 -3.1490407 0.47939807
H 0.18952343 -1.8243434 1.6427658
H -1.1787183 -1.4725981 -0.4820608
H 0.3132782 -1.4632586 -1.4158257
H -2.906119 1.7863718 -0.5012006
H -1.7500074 3.0589876 -0.39894748
H -0.5019648 0.8036377 -1.0121825
H 1.5683652 1.8448752 -0.18481429
H 2.0779614 0.33901748 0.5966844
H 1.9709176 0.42884874 -1.1747477
