19

C 0.69594884 -1.9655713 0.5757398
C 0.34280843 -0.9543224 -0.4352566
O -1.805001 -1.2078911 0.038222246
C -1.5971283 0.008559851 -0.40022194
C 0.09607448 0.41754174 -0.14630614
C 0.4872536 1.4541764 -1.1850393
C 0.27488092 0.87420964 1.2900325
H 0.8639009 -2.953922 0.14552963
H 1.5696764 -1.6405509 1.1545119
H -0.173132 -2.0037587 1.2485266
H 0.34347242 -1.243464 -1.4860076
H -2.1762025 0.84155124 0.071447365
H -1.609548 0.17104761 -1.4989753
H 0.44773778 1.0498604 -2.2021878
H 1.5013664 1.8330722 -1.0097132
H -0.19907802 2.308848 -1.1363798
H 1.3314371 0.9080371 1.586148
H -0.26180762 0.21818398 1.9823008
H -0.1326599 1.8843924 1.4076285
