18

C 0.25992596 -1.8869439 -0.18076435
C 0.9628848 -0.5956465 0.09206257
C -0.5625213 0.42820212 1.3034822
C -1.273443 0.8637719 0.012762789
C -0.06353536 1.5040239 -0.5996934
C 1.0182936 0.48522487 -0.9194079
H -0.68071914 -1.7345262 -0.7241702
H 0.042823985 -2.4224532 0.7515998
H 0.88317716 -2.5522444 -0.79367
H 1.8181534 -0.6904181 0.76312804
H -0.87195206 1.1209698 2.1024668
H -0.6914492 -0.5730536 1.735211
H -1.759413 0.040249795 -0.53581816
H -2.050587 1.6111557 0.21200845
H -0.20625412 2.3204284 -1.3182907
H 0.40607733 1.1165917 1.0184478
H 0.76747006 0.0071137287 -1.8845204
H 2.0010676 0.95755434 -1.034834
