18

C 2.3627727 -0.840631 -0.72549915
C 0.5499895 0.39108446 -1.0157511
C -0.64351034 -0.5192194 -0.81876314
C -1.161047 0.6371881 0.083396226
C -2.0414298 0.28520128 1.2711403
C 0.32808852 0.997803 0.35144
H 1.8002731 -1.63907 -0.2462811
H 2.9464936 -0.2654905 -0.00572702
H 2.9996858 -1.2401623 -1.5208752
H 1.7084962 -0.027406823 -1.4060074
H -0.4821404 -1.3990357 -0.17786933
H -1.2158096 -0.81454545 -1.7044481
H -1.636541 1.4128885 -0.5249327
H -2.2198465 1.1649233 1.9002302
H -3.0141845 -0.096283175 0.93964267
H -1.5701283 -0.48551178 1.8924912
H 0.6156721 2.0438683 0.5028231
H 0.67316616 0.39439896 1.2049907
