18

C -0.1885072 -0.7491632 -2.002878
C -0.8024427 0.55377984 -1.4951583
C -0.23475376 1.0183456 -0.15326534
C -0.65698254 0.196717 1.0508411
C 0.28795537 0.37625787 2.182456
C 0.7960225 -0.8790552 1.4977193
H -0.4345981 -1.5939618 -1.3488544
H 0.9051114 -0.67595714 -2.0630536
H -0.5606853 -0.9963723 -3.0027888
H -0.64163566 1.3409237 -2.24334
H -1.8866026 0.43080482 -1.3867693
H -0.6668545 2.0026007 0.08817206
H 0.85634047 1.1908325 -0.23799922
H -0.13064283 -1.1091323 0.7752961
H 0.9966964 1.2081984 2.1314526
H -0.09968327 0.22687536 3.1902032
H 0.756829 -1.7806015 2.1086204
H 1.7044331 -0.761092 0.90934646
