18

C 1.7508299 0.9508313 1.1189988
C 0.28665754 0.55021256 1.2707899
C -0.0015867518 -0.89371043 0.91618776
C -1.351511 -1.0728669 0.3195104
C -0.4575111 -0.98759043 -0.9105539
C -0.611771 0.1936381 -1.8463503
H 2.3958926 0.21405368 1.6075705
H 2.0341494 0.99145484 0.059096083
H 1.9496905 1.9368893 1.5524211
H -0.36950144 1.301406 0.7942943
H 0.016069992 0.5689238 2.3382382
H 0.61556464 -1.0236889 -0.38616446
H -2.056472 -0.23546731 0.38438433
H -1.8480568 -2.032537 0.4683363
H -0.37788793 -1.9532335 -1.4142749
H -1.5678849 0.13386495 -2.3772771
H 0.19005516 0.21400036 -2.5916896
H -0.59672666 1.1438198 -1.3035172
