19

C 0.44582674 -2.37265 -0.060006768
C -0.82309586 -0.80010486 -0.1960172
O -0.017269276 -1.2101892 1.1412822
C 0.7658355 -0.00043678822 0.9695624
C -0.1781673 0.5951114 -0.08354228
C -1.1044754 1.6502539 0.5238354
C 0.49124676 1.1208501 -1.3486166
H -0.36126032 -3.0813694 -0.21183398
H 0.9183684 -2.112194 -1.0029943
H 1.1976714 -2.7880452 0.6357307
H -1.8828666 -0.81018364 0.09731593
H 1.7750609 -0.24206829 0.61159813
H 0.8403587 0.524817 1.9267081
H -1.5819637 1.2720989 1.4355454
H -1.897488 1.9165576 -0.18530242
H -0.55828434 2.5687022 0.780071
H -0.26340315 1.36773 -2.103993
H 1.1616977 0.37110916 -1.7825115
H 1.0722078 2.030011 -1.1468315
