19

C -1.4538097 0.113127746 -1.1318725
C 0.09533639 0.029897802 -0.8440098
C 0.5481644 -1.4352643 -1.1014206
O 0.8073178 0.8998824 -1.5395815
C 0.19872326 0.37769046 0.6012192
C 0.45049536 1.7930866 0.898921
C 0.23530804 -0.6185784 1.6991702
H -1.5356407 -0.041453745 -2.2133586
H -1.8278674 1.1179777 -0.9106491
H -2.0629022 -0.6337115 -0.60697985
H -0.004135551 -2.1873612 -0.5266255
H 1.618257 -1.5224357 -0.88906604
H 0.40283674 -1.6307414 -2.1660788
H 0.035418656 2.1044395 1.8630663
H 1.5408062 1.9363084 0.9371194
H 0.14124781 2.3921952 0.033020243
H 1.1965773 -1.1518999 1.6437652
H -0.5400995 -1.380387 1.5639699
H 0.15396637 -0.1627728 2.6893911
