18

C -0.010994773 0.73302144 -2.2084103
C -0.37454697 0.13050047 -0.87855
C -0.6265658 0.893623 0.25274363
C -0.971537 0.21127257 1.4953284
C 0.82979417 -1.2074882 1.4252839
C 1.3030676 -0.9022812 0.16575164
H 0.42314297 1.7323005 -2.0894387
H -0.88496834 0.82500786 -2.8678036
H 0.7223843 0.111534454 -2.7368243
H -0.8844366 -0.8312351 -0.9303623
H -1.8068115 1.0153403 0.7882152
H -0.17669587 1.8811532 0.34776115
H -0.8711426 0.7293058 2.4437747
H -1.6020323 -0.6698012 1.4616817
H 1.24038 -0.72846794 2.308802
H 0.3353863 -2.1614509 1.5990974
H 2.0469718 -0.116457045 0.04959175
H 1.3086044 -1.6458781 -0.62664247
