18

C -1.0947077 -0.80703443 -1.4570303
C -1.556079 0.3547428 -0.5686258
C -0.4594571 1.2871827 -0.40999204
C 0.4304925 1.2246768 0.76382107
C 1.0455521 -0.07080237 0.21618815
C 1.2597513 -1.1455998 1.2806442
H -0.4465533 -0.46767157 -2.2774603
H 0.29944882 -0.6842238 -0.5256909
H -1.9247153 -1.3983754 -1.8731005
H -1.9717762 0.013791514 0.38848364
H -2.353915 0.8857698 -1.119802
H -0.116922975 1.8127683 -1.3002033
H -0.105899006 1.0500765 1.7030983
H 1.1266925 2.0583608 0.87818426
H 1.9520308 0.15311402 -0.3495357
H 1.9308406 -0.7941818 2.0746572
H 1.6820984 -2.0533972 0.8359001
H 0.30311808 -1.4191971 1.7404642
