15

C -0.6287892 0.33558822 -0.9173805
C -0.63709694 0.29706472 0.59915745
O -1.9174491 -0.061036065 1.0857874
C 0.45230108 -0.72681314 1.0230268
O 1.1460763 -1.1631901 -0.1513212
C 1.2480747 -0.1924108 -1.077302
O 1.8300531 0.95890015 -0.834686
H -1.0638047 -0.5580348 -1.3693821
H 0.57197404 1.0130455 -1.132718
H -1.1515685 1.2138026 -1.321093
H -0.35678947 1.2918482 0.9721786
H -1.9611267 0.1841626 2.0183473
H -0.02940011 -1.6217425 1.423505
H 1.1576127 -0.32005298 1.7535297
H 1.3399332 -0.65113175 -2.0716493
