15

C 0.60251236 0.37223646 1.4260051
C 1.4412614 0.07467326 -0.2837323
C -1.0995487 -0.48963112 -0.6295812
N -0.1734767 0.51549286 -0.13324435
C 0.74019253 1.0383213 -1.1346946
C -1.5710716 -1.3972614 0.4245712
N -1.947488 -2.1169746 1.2586468
H 0.95092154 2.0898764 -1.0542314
H 1.2324259 -0.395827 1.8562039
H 0.4505479 0.72885495 -2.1448925
H -0.6580562 -1.1193376 -1.4181855
H 1.0082543 1.3713537 1.6500418
H -0.38516656 0.2538722 1.9146945
H 1.3935108 -0.95196325 -0.6797653
H -1.984819 0.026313927 -1.0518366
