16

C -0.58529544 -0.4442408 0.876541
O 0.039581254 0.30230564 -1.2804525
C -1.2284026 -1.6552848 0.2600749
C 0.14969721 0.46917328 0.043409333
N -0.72992456 -0.26605904 2.1423187
O -0.08926354 0.86714935 2.589701
C 0.6624417 1.0021896 -2.1645627
H 2.1175206 0.19673797 -0.4446238
H -1.9779377 -1.3687097 -0.48107558
H 2.2299159 0.39303398 -1.2004428
H -1.6980793 -2.2568173 1.0400401
H -0.30414504 0.8931539 3.540696
H 0.96339864 2.0051181 -1.9022356
H -0.49019793 -2.2683518 -0.2475713
H 0.46090606 0.70405126 -3.1833503
H 0.4797844 1.4265504 0.411534
