15

C 1.229615 -0.38619152 1.0030582
C 0.04351562 1.6931766 0.20967384
C -1.205021 2.1375248 -0.37914222
N -2.1894398 2.5026062 -0.86494195
C -0.74358064 -1.8519555 -0.29900837
C 0.16164097 -0.7258725 0.050502427
N 0.04302331 0.41905138 0.6797189
H -1.5691165 -1.4924613 -0.91040635
H 2.1948931 -0.024905287 0.59238625
H 0.60915416 2.440429 0.76916337
H 0.7966779 0.92058456 -1.3041471
H 1.2714041 -0.7747368 2.0303488
H -1.1818236 -2.325755 0.6081571
H 0.74311036 0.08411088 -1.3151298
H -0.20405269 -2.6156049 -0.8702328
