16

C -1.7224308 -0.31227714 -1.4023349
O 1.4392915 0.08656895 -0.037416358
C 2.5355723 -0.3399396 0.7280835
C -1.2018846 1.3331255 0.22473012
N -2.141114 0.66371226 -0.553265
C 0.3476845 -0.69463086 0.22114116
O -0.51305455 -0.552088 -1.4972565
H -1.6601219 1.968651 0.9915227
H 2.3412266 -0.29754803 1.8139209
H 2.8178124 -1.391792 0.47999316
H -2.495166 -0.9003522 -1.9016049
H -3.115042 0.7219471 -0.33772808
H -0.13541797 -0.5543231 1.1766908
H 3.3762994 0.29384682 0.48167208
H 0.44868383 -1.7249854 -0.12351816
H -0.3223382 1.700085 -0.26463082
