16

C -2.5706193 0.7234403 1.3643728
C 0.91749173 -0.056492373 -0.5131974
N 0.13167286 1.0042666 -0.14302668
C -1.3172175 -0.100100316 1.1790674
O 1.7931706 0.4478744 -1.4119166
O 0.9071824 -1.2522303 -0.21025161
C 2.7239478 -0.49746466 -1.8605328
H -0.9112857 -0.54889196 2.0685847
H -2.4322724 1.5416886 2.0624812
H -1.3894253 -0.8628315 0.39481857
H -2.8970318 1.1253182 0.40147436
H 2.2170303 -1.3449894 -2.3566601
H 3.3022606 -0.93971676 -1.0374804
H -3.3715575 0.06803225 1.7391523
H 3.362928 0.022627007 -2.586473
H -0.46627483 0.6694702 0.909587
