16

C 0.481799 0.46470478 -0.3557352
C -0.743744 -0.308154 -0.4321346
O 0.08304181 1.4554894 0.87884605
C -0.37949067 -1.7146963 1.597012
N -0.7830038 -1.5334096 0.30761248
C 0.78378654 1.3819438 -1.4951915
O 0.1270601 -0.8429291 2.2954462
H -0.12627469 1.8540457 -1.8916548
H 1.3679154 -0.022024663 0.060758226
H -1.1948004 -0.4138496 -1.3987805
H -0.8863661 0.9961375 0.5503836
H -0.55092824 -2.7342336 1.9643221
H 1.2060255 0.7802693 -2.3192258
H 0.25260323 0.84436417 1.64195
H 1.5071433 2.1541843 -1.2384903
H -1.144767 -2.3618422 -0.16511805
