16

C -0.34827217 -0.40559062 -2.6675525
N -0.8992994 0.18729581 -1.4644451
C 0.064649634 0.8673481 -0.4683664
C 0.8081155 -0.13470984 2.97178
O -0.90915066 -0.63154453 1.0759137
O 0.9382046 0.4981265 1.6944841
C -0.008739507 0.1665004 0.80194235
H -1.1712486 -0.73414135 -3.3083825
H 0.8344733 -1.2132845 2.8740857
H -0.11145066 0.17684603 3.4568317
H -0.9994774 1.3138632 -1.1170136
H 1.0666852 1.0201832 -0.88956505
H 1.6682575 0.22716844 3.5362415
H 0.28408816 -1.2549243 -2.4010477
H -1.4581065 -0.4319856 -0.8959149
H 0.24127081 0.34884912 -3.198992
