17

C -1.8565066 -0.96841925 -0.21160042
C 1.512617 1.7299404 -0.73177576
N 0.58742 0.99044836 -1.4515142
C 0.23704495 0.12024595 0.9758988
C 0.35890552 1.2610973 -0.02975155
C -0.8341569 -0.9060539 0.910714
N 0.5650331 -1.283556 0.66794264
H 0.721888 -0.0009292299 -1.6577646
H -0.37525144 2.0647125 0.1502285
H 0.72726095 -1.4045169 -0.29337135
H -1.4867625 -0.5002629 -1.131917
H 2.7025988 1.5429605 -0.58274066
H -2.759591 -0.43444604 0.077321276
H -2.1091192 -2.0024884 -0.43561134
H 0.5867983 0.43601164 1.9572312
H -1.2039326 -1.2920476 1.8548803
H 2.6257534 0.6473035 -0.06816997
