16

C 0.9998441 -1.3342557 -0.40767407
N -0.11245661 -1.3491353 -1.1162578
C 0.72091776 1.6883049 0.40242398
O 1.2666612 -0.694808 0.7208695
C -1.4843247 -1.0896726 -0.67207646
C 0.5333912 0.42635328 1.2315949
O 0.039510544 1.6888884 -0.8365333
H 0.94775254 0.58003086 2.2293687
H 0.37193 0.96171594 -1.3604997
H 0.36361757 2.5393183 0.97629094
H -1.6998663 -1.5201608 0.33054578
H -2.1692266 -1.5619779 -1.383792
H -1.6900176 -0.012695231 -0.6584536
H 1.808083 1.8423507 0.2803137
H -0.5374798 0.18815291 1.3407997
H 0.64166385 -2.3524096 -1.0769199
