16

C -0.5972643 2.169115 0.04757121
C 0.57968295 -1.331816 0.39370656
C -0.9620633 -0.17781624 -0.82772154
O 0.30232096 -0.9618071 1.6560955
C 0.024551481 0.8460039 -0.33525577
O -0.23432313 -1.427178 -0.6516847
N 1.5984467 -2.189095 0.3263429
H -1.2552365 -0.19018036 -1.87758
H 2.1353831 -2.3974733 1.1519705
H -1.8797156 -0.20521475 -0.20682463
H 0.014637776 -0.033687968 1.4776953
H 0.82707626 0.9781409 -1.096928
H 1.7652903 -2.6787205 -0.5478426
H -1.083187 2.689087 -0.7977492
H 0.13407697 2.8765643 0.47454336
H -1.3696765 2.0340781 0.8136613
