15

C 0.23632821 1.011045 -0.06907595
C -0.31835714 -0.3428197 -0.53209233
C 0.64419323 -1.4578941 -0.8846648
N -0.95267403 1.4717454 0.6540983
C -1.5373662 0.23063228 1.1083437
C 1.4185594 0.8188651 0.8084581
N 2.3490455 0.67883396 1.4829966
H 1.2673692 -1.159573 -1.7397126
H -0.79924923 -0.7144632 0.5444552
H -0.67853886 2.0100205 1.4670007
H 0.5260532 1.6771324 -0.892691
H 0.085350476 -2.3527248 -1.1589679
H -1.0863209 -0.20131494 -1.3027294
H -2.4572136 0.020016849 0.55863035
H 1.3028207 -1.6895018 -0.04404922
