15

C -1.4424807 0.3932726 -0.9132138
C 1.0280406 -1.1612881 0.27088115
C 0.18712912 1.1775755 1.4186938
C -1.3180953 -0.85876673 -1.3551432
N 1.5958157 -0.038671613 -0.43559614
C 0.6059735 0.105013266 0.45173082
N -0.7972304 -1.9583532 -1.4694079
H 1.5354474 0.04230871 -1.4459178
H 1.0231225 1.3186387 2.095028
H -0.66996944 0.8398313 1.9923307
H -1.1789373 1.2083099 -1.5735612
H -0.038569935 2.0864105 0.9331746
H 0.09840785 -1.8674368 -0.72600925
H 1.5358201 -1.8961124 0.8883525
H -2.164474 0.6092684 -0.1313419
