21

C 0.36199838 0.7534403 2.3210328
C -1.7190307 -0.8081698 -1.4428225
C 1.3273506 -0.31009048 0.97196454
C -0.6290234 0.0023473506 -0.7325036
C 0.24961123 -0.91958916 0.10731914
C 0.18321668 0.7856343 -1.7514579
O 2.1850243 0.55516297 0.43557543
H 1.344185 0.92892456 1.4323989
H 0.6607093 0.11037186 -2.4815996
H -1.2837669 -1.553541 -2.1435897
H -0.3386526 -0.036501616 2.5797212
H 1.7257689 -1.0193887 1.7091509
H -1.1147809 0.7104615 -0.057307534
H -2.3735023 -0.14407021 -2.0335233
H 0.9477063 1.0043211 3.2258055
H -0.43845353 1.4769968 -2.3058624
H 0.99652624 1.3428565 -1.2620425
H -0.37545508 -1.5901318 0.7407185
H -2.3548968 -1.3485304 -0.7302515
H -0.18256924 1.6447324 1.9866713
H 0.82803464 -1.5852368 -0.5693981
