16

C -0.18219641 -0.85683775 -0.056495402
C -1.5429223 -0.8166673 -0.75993156
O 1.6036025 0.6023485 1.8731155
C 0.8818918 -0.022593962 -0.80114895
N 0.80300856 1.3088161 -0.21904705
C 0.70491827 1.1910235 1.1618141
O -0.30346662 -0.27939653 1.2259624
H 0.71292967 0.014499757 -1.8774568
H -1.489697 -1.2728643 -1.7505218
H 0.76732916 -0.29966488 1.8235681
H 0.05707223 1.8587006 -0.6205844
H 0.14414386 -1.9054208 0.04882208
H 1.8845699 -0.40682167 -0.6229503
H -1.8639411 0.22942685 -0.88203853
H -2.2989383 -1.3345361 -0.17693166
H 0.1216957 1.9899875 1.6338245
