15

C 0.38273102 0.7717222 0.22204553
N -1.2680228 -0.48104832 -0.49871117
C 1.9953945 -1.048931 0.7879486
N 0.7318538 -0.54948 0.30976528
C -0.8915384 0.8301526 -0.30436912
C -0.29335687 -1.296614 -0.14418861
C -2.0140107 1.6829864 -0.74764746
H 1.9407187 -2.134692 0.8997266
H 1.0693187 1.5569298 0.51938236
H -2.211207 2.5114462 -0.06379332
H -2.3158133 -0.12009535 -0.8480293
H -0.29789987 -2.3860142 -0.1786505
H -1.8429298 2.0642767 -1.7700404
H 2.2214103 -0.5986997 1.7317445
H 2.7933524 -0.80193937 0.08481673
