21

C -2.290554 0.5576147 -0.19278134
C -1.0832245 -0.35436937 0.025649907
C 1.0119873 -0.02160105 0.38905412
C 2.261631 -0.39725456 -0.3387859
C -1.0616474 -1.5645705 -0.871611
C 1.2281463 1.0068979 1.4469273
O 0.14423649 0.6804754 -0.70185
H 1.9109803 0.6203251 2.230658
H -1.9293518 -2.1937647 -0.6455844
H -1.1048709 -1.2859899 -1.9390674
H 0.2951835 1.3018382 1.9636662
H -2.2215369 1.4761206 0.39804572
H -1.0384 -0.5997271 1.0725456
H 2.0805445 -1.11359 -1.1505103
H 2.8177233 0.4568753 -0.7710837
H 1.6968448 1.9486871 1.0696045
H 2.9733536 -0.90058714 0.36714488
H -0.16896132 -2.1426148 -0.6889373
H 0.07387734 1.6487337 -0.519128
H -2.398534 0.8411736 -1.2536273
H -3.1974277 0.035327774 0.10967066
