15

C -1.5872296 -0.17776209 -1.6403651
C -0.2451382 0.34037045 -1.362527
C 0.2533127 -0.054155238 0.026198916
C 1.7918344 -1.1244417 0.2355539
N -2.638108 -0.6078347 -1.8237295
C -0.6170126 0.3456313 1.2153587
N 1.6483471 0.31888518 0.13035372
H -0.17802092 -0.028543629 2.139856
H -1.6127532 -0.035921093 1.0880214
H -0.2699783 1.4347099 -1.415885
H 0.26872975 -1.2365326 -0.057921145
H 0.44946676 -0.026922869 -2.1228175
H 1.5901549 -1.3706974 1.3073246
H 1.8082724 0.7896655 1.016877
H -0.6618769 1.4335487 1.2637005
