17

C 0.030831788 -0.9734939 -0.5098214
C 0.72119945 0.26734915 0.050488442
N 0.58706176 0.490982 1.4455073
C 0.14222477 1.7716768 0.9347875
C -0.09402224 -2.170332 0.33675182
C -0.2477716 1.508865 -0.9701842
N -1.277096 -1.3920137 -0.09691218
H 1.0800169 2.3308272 0.7443767
H -1.611851 -0.81190497 0.7012494
H -0.17956452 2.599063 -1.0230421
H 0.25126296 -2.1081913 1.3710846
H -0.049190894 -3.1626298 -0.09657588
H 0.1965772 -1.1129756 -1.582793
H 1.7310551 0.39021555 -0.31618357
H -0.19411871 0.006334013 1.8517202
H 0.22387795 1.138409 -1.8820049
H -1.3104929 1.2278198 -0.95844907
