16

C -0.6063649 0.21979061 -0.68159205
C 1.9511583 0.36760652 -0.81173986
O -2.7922235 -0.75270236 -0.55050653
C 0.7336097 0.106908195 0.027854705
C -1.8490251 -0.3025797 0.051301904
O 0.7869765 0.53703 1.3017126
N -1.8021762 -0.19788773 1.420179
H 2.8552363 0.14905307 -0.25265273
H 0.8397213 -0.82740825 0.89087504
H -2.6151445 -0.48150206 1.9270065
H 1.9707023 1.4425834 -1.0149093
H 0.85395926 -1.3236767 0.077260025
H -0.7299659 1.302952 -0.8264898
H -0.97589546 0.18102375 1.8578037
H 1.9530274 -0.17144205 -1.7592906
H -0.57359594 -0.24974841 -1.6568124
