16

C 1.4240888 -1.3472639 0.40222552
C -1.2831982 1.6526945 -1.9793811
N -0.51063037 0.40663558 1.2400934
C -0.4867241 0.56822014 -0.04233665
O 0.22704206 -0.091804974 -0.8462913
O -1.3059089 1.5053858 -0.57527494
C 0.7273488 -1.2661923 1.607098
H 1.1417414 -0.7396309 2.434506
H -0.09177346 -1.9519957 1.7873894
H -1.1411698 0.99740314 1.7297522
H 2.2739596 -0.69869035 0.25096926
H 1.803328 -2.1433635 1.3829648
H -1.6491911 0.7561162 -2.4731386
H -0.28668794 1.8822786 -2.3530865
H 1.118702 -2.035041 -0.3788512
H -1.960927 2.5052488 -2.1866376
