15

C 1.028758 -0.023638995 -1.1652548
C -1.801844 0.4923559 0.6492728
C 1.1263089 -1.0273238 1.0746472
N -1.5230302 2.7246861 -0.68374705
C -1.6324459 1.7277611 -0.093524575
C 1.0291749 0.14723568 0.32625127
N -2.0513043 -0.66135293 0.12599328
H 2.0688634 0.040830813 -1.5217733
H 0.5306577 0.83761364 -1.645501
H 0.586142 -0.9288484 -1.5631703
H 1.0985378 -2.0152354 0.62210274
H -1.7518947 0.5942303 1.7317874
H -1.9822462 -0.5971857 -0.8994536
H 2.1571164 -0.31229797 0.8738276
H 1.1172055 -0.9988305 2.1685424
