16

C -0.3751507 -1.7808228 0.4106024
C 0.56517166 2.3827891 -1.2794873
N -0.1370852 -0.6896096 -0.5119982
C 0.93290603 0.037102263 -0.4489318
O 1.9692922 0.23037905 0.10756116
O 0.508735 1.0043563 -1.6444961
C -0.9864454 -1.3135214 1.714204
H -0.1288032 2.585298 -0.46943328
H 0.5731255 -2.2998238 0.5973697
H 1.5665276 2.5718293 -0.9362021
H -1.9172525 -0.78675365 1.5258633
H -0.36572334 0.33668032 -1.4502883
H -1.0439194 -2.4991536 -0.08598499
H -1.1860594 -2.151248 2.3904443
H 0.32132855 2.9811325 -2.153814
H -0.2966477 -0.6086343 2.234591
