21

C 0.5068996 -1.8996532 -1.533119
C 0.15413108 -0.5288437 -1.0707651
C 0.63932025 1.2368355 2.0684295
O 0.5588756 -0.18313909 0.12156723
C -0.3576739 -2.363198 -2.6835783
C 0.21943644 0.9698007 0.67017096
C -0.17664222 2.3788579 2.6706038
H -0.07111409 -3.3499231 -3.0438638
H 0.12767276 2.58611 3.7078562
H -1.5202057 0.47361967 0.22735344
H 1.7187783 1.4923202 2.0987365
H 0.51989293 0.32292497 2.6514072
H 1.5713949 -1.9305719 -1.82732
H 0.41654027 -2.5735328 -0.6575163
H -1.4188232 -2.411218 -2.3678265
H 0.18282612 1.8001544 -0.040617492
H -0.30934852 -1.6724844 -3.523775
H -1.5578048 -0.04785961 -0.4214387
H -1.2508053 2.1365218 2.6814473
H 0.11551746 0.26691133 -1.8195757
H -0.068868026 3.296368 2.091824
