17

C 0.35085744 1.333905 0.1995032
C 1.7643733 1.4745392 -0.24496077
N 1.7169333 0.43434733 0.78779835
C -1.4140214 -1.2623074 0.8982803
C -0.51113826 0.55765736 -0.7624127
C -1.4072939 -0.57337606 -0.4458172
N -0.27370095 -0.74574184 -1.3740209
H 0.83109945 0.78271675 1.3776371
H 2.0123322 1.0559373 -1.2211436
H -0.45723525 -1.1835061 1.4155842
H -0.88625646 1.2630901 -1.5045321
H -1.6549897 -2.3088548 0.7814348
H -2.3650782 -0.61274815 -0.9653644
H 1.6607847 -0.4894668 0.3652133
H 0.4546634 -1.2571422 -0.8845449
H 2.3574185 2.342059 0.034643956
H -2.178748 -0.81110895 1.5427015
