16

C -1.095337 -0.79698724 1.8932279
C 0.82137036 0.11553019 -0.7118914
O 0.78138256 1.3336457 0.65630877
C -0.41226175 -0.72826874 -0.4636156
N -0.5046833 -1.3688829 0.8329477
C 0.8167149 1.1253997 -1.7004502
O -1.5341243 0.34419775 1.9013867
H -1.287177 -0.1081761 -0.6411007
H -0.07616374 -2.2742329 0.9463327
H -1.1138564 -1.4454296 2.7856066
H 1.7507743 -0.3565478 -0.38589838
H 1.7530262 1.2876886 -2.2307453
H -0.40372613 -1.5154631 -1.2309121
H -0.083627015 1.2244555 -2.3066387
H -0.12942718 1.3200305 1.0552601
H 0.71711534 1.8430402 -0.39981812
