16

C -2.0720634 -0.20847043 0.030797241
N 0.9550225 -0.3456482 -0.18883328
C -1.2948087 1.3050026 0.19031423
O -0.123592734 1.2948589 0.98945415
C 2.1565259 -1.0862159 -0.4835321
C 0.90941083 0.58104247 0.6812152
O -1.4669319 -1.0146272 -0.8128363
H -1.0718329 1.5888568 -0.83152217
H -0.016359303 -0.68742734 -0.5910109
H 1.8205082 0.82391274 1.2138613
H 1.984408 -2.1492274 -0.30296776
H -1.9704734 2.0032594 0.69148886
H 2.4328866 -0.9623178 -1.5261745
H 2.9897969 -0.7729971 0.1540291
H -3.0683131 0.14393526 -0.29964575
H -2.1641836 -0.5139367 1.0853626
