16

C -0.39984304 -0.3954424 -1.595703
C 0.83637285 -0.18574792 2.4528918
N 0.015764533 -0.8635527 -0.25962856
C -1.2355784 0.8570377 -1.5619826
O 2.038074 0.24923365 -0.033853088
O 1.0976428 -1.3581002 2.0150535
C 1.010698 -0.19260801 0.36396286
H 1.6710758 0.48485014 2.7414129
H -0.651651 -1.2761438 0.35421196
H -1.5541247 1.1404985 -2.5675406
H 0.44735134 0.59343594 1.3600923
H -0.9340259 -1.217086 -2.0667882
H -0.06917919 0.00029817523 3.0390954
H -2.1421785 0.70116067 -0.9671461
H -0.6791307 1.6968791 -1.1250572
H 0.54873186 -0.23471281 -2.1490216
