15

C -1.1153079 -0.015847605 0.023887366
N -1.2641325 1.2260985 -0.29894626
C -2.2692053 -0.92776597 0.35116735
N 1.2105784 0.3972354 -0.19796059
C 0.28283125 -0.42505533 0.11341825
C 2.5814512 -0.015910437 -0.015269056
C -0.66477036 2.2762752 -0.43094397
H 3.139322 0.07499283 -0.9465273
H 0.48562863 -1.4343197 0.4537661
H -2.2063787 -1.2725055 1.3770324
H 3.0755115 0.6380879 0.7166264
H -0.45943138 2.7105427 -1.4240386
H -2.294233 -1.7965224 -0.30589113
H -3.2018497 -0.38239497 0.22630115
H 2.6999867 -1.0529104 0.35737768
