17

C 1.3948885 1.0291227 -0.98320377
C 1.3419186 0.7506846 0.49685732
N 0.34288263 1.3281976 1.3734456
C 0.30129087 -0.12443506 1.1211634
C -0.8175448 -0.6586986 0.35187462
C -2.0388756 -1.5900412 0.100975774
N -1.7453604 -0.22097562 -0.4145871
H 1.7447771 2.0513053 -1.1646633
H 0.4217068 0.9055038 -1.4683443
H 2.0907028 0.3389444 -1.4696524
H 2.3211944 0.6987026 0.971443
H -0.3924319 1.7827245 0.8329858
H 0.5858492 -0.7440175 1.9666861
H -0.01405503 -2.085171 -0.73277175
H -0.879355 -2.3321056 -0.5895852
H -2.836925 -1.4824183 0.853582
H -1.8206633 0.35267738 -1.2462057
