15

C -0.73858804 1.7783014 -1.4345552
N -0.33948463 0.6122051 -0.666615
C -0.49507827 -0.66731715 -1.0457169
N 0.01116658 -1.4292318 -0.09035781
C 0.49854696 -0.66566557 0.9557815
C 1.0212415 -1.6290942 1.9511304
C 0.2770642 0.63565433 0.5803024
H 0.13620548 2.3909535 -1.6688046
H -1.205909 1.4528545 -2.3664508
H -1.457711 2.3728292 -0.86479115
H -0.9421908 -0.9780078 -1.9787354
H 0.36395395 -1.6751392 2.8293781
H 0.3533445 -2.3906372 0.43505865
H 2.0331564 -1.3832113 2.2935565
H 0.48428196 1.5755059 1.0708195
