17

C -1.17711 -0.3030998 1.4535272
C 0.21557605 -0.570913 0.92035264
N 0.39026457 -1.8667802 0.34464255
C 0.97369367 -1.0605797 -0.6906198
C 0.3440804 0.7367688 -0.25503156
C 0.63954437 1.325821 -1.5957521
N -0.7401275 1.1118726 -1.151237
H -1.3886774 -1.0276515 2.24792
H -1.9290823 -0.41016322 0.66663784
H -1.2552326 0.7095251 1.8593659
H 1.0087427 -0.34892792 1.6343174
H -0.5152419 -2.2072468 0.022621825
H 2.0243917 -0.8903665 -0.38252908
H 0.4821009 1.4964861 0.521428
H 0.9394049 2.3726137 -1.6314816
H 1.0463964 0.6781347 -2.3625498
H -1.0587239 0.25450677 -1.6016121
