21

C 1.3516117 -1.7522125 0.029856399
C 0.28827932 -1.4906399 1.0582204
C -0.9198604 -2.3615701 0.85977674
C -0.609651 0.3550455 0.08382812
C 0.25492102 1.5653832 -0.19821312
C -0.36445597 2.4615288 -1.2691054
O 0.38834417 2.2556784 1.0336897
H 1.8642212 -2.6588016 0.38486367
H 2.1127937 -0.9658602 -0.0048574815
H 1.0004913 -1.9687539 -0.9959653
H -0.0766312 -0.2004925 1.0323724
H -0.6442173 -3.330556 1.3017389
H -1.2103983 -2.5623348 -0.18761389
H -1.7936049 -2.0045183 1.4144695
H -1.5759498 0.6425569 0.5136385
H -0.761582 -0.2611353 -0.80283254
H 1.2417986 1.219529 -0.5498555
H -1.3509669 2.8073618 -0.94205105
H -0.4742473 1.9283198 -2.2197244
H 0.26381394 3.3430352 -1.448947
H 1.0152901 2.9784362 0.9067112
