16

C -1.807067 -1.1591429 -0.53404963
C -0.7153378 -0.43509808 0.24569172
C 0.6155632 -1.1278472 0.25199988
O 1.5745068 -0.026865669 0.4845867
C 1.0527325 1.0935304 0.016981175
O 0.6496712 1.3140484 -1.2345378
N 1.4139162 2.1834307 0.6860299
H -2.1128545 -2.128505 -0.102139555
H -2.7164478 -0.54781264 -0.592299
H -1.500004 -1.3689046 -1.5707586
H -0.1546297 0.7076261 -1.1750426
H -1.046161 -0.25686583 1.2777853
H 0.8696623 -1.8405743 1.0505872
H 0.85627455 -1.5928196 -0.7132212
H 1.1768143 3.0896893 0.3146886
H 1.8433614 2.096111 1.593698
