16

C 1.2326218 -1.8371061 -0.009624863
C 0.8417259 -0.51997113 -0.40726805
O -0.67523575 -1.0038698 -1.1517779
C 0.45088536 0.47196063 0.665116
N -0.27424434 1.6486661 0.2145637
C -1.619448 1.669492 0.098243825
O -2.3466923 0.7032293 0.28112307
H 1.2295719 -2.0514746 1.0593147
H 2.026034 -2.3199134 -0.57456857
H -0.1494242 -1.9240302 -0.6724792
H 1.2910333 -0.0710501 -1.2927029
H -1.4375094 -0.68900955 -0.6141721
H -0.15757254 -0.035579514 1.420608
H 1.3706404 0.8063847 1.1560686
H 0.23664665 2.4923446 0.0060664024
H -2.0190327 2.659927 -0.1785107
