16

C 1.4715775 0.2278659 1.901689
C 0.09329177 0.73573595 1.6582227
N 0.340443 1.2963504 -0.41195935
C -0.3051289 0.21703297 -0.7360612
O -0.7240701 -0.53471667 0.18980265
O -0.51525855 -0.09575631 -2.0307117
C -1.2804563 -1.2752914 -2.2542107
H 2.2299771 0.88195795 1.4724628
H 1.6117496 0.16599396 2.991556
H 1.5836592 -0.7805425 1.4978389
H -0.699384 0.17466697 2.137826
H -0.05900423 1.8045253 1.7214773
H 0.67168677 1.8914814 -1.1644338
H -1.3335279 -1.3943684 -3.3377948
H -0.7992115 -2.1448014 -1.7985421
H -2.2863436 -1.170134 -1.8371618
