21

C -0.10020164 0.42481875 2.0726812
C -0.7204687 -0.42160735 0.9591134
C -0.92010564 -1.8665286 1.4139708
C 0.12304209 -0.3847579 -0.32489997
C 0.22331312 1.0451235 -0.82387567
C 1.0695691 0.8333059 -2.5473723
O -0.9087902 1.6948481 -1.0622414
H -0.6938926 0.35020137 2.9905877
H -0.057071205 1.4839368 1.7947491
H 0.91831255 0.08527981 2.3052917
H -1.6941829 0.0122461505 0.7013864
H -1.557483 -1.9105796 2.304368
H 0.03982159 -2.3347607 1.6681998
H -1.3925171 -2.4720674 0.6316891
H -0.37182894 -0.9915942 -1.0925541
H 1.121833 -0.8057932 -0.14233078
H 1.0582439 1.6158926 -0.37596822
H 0.6001037 0.08299687 -3.1917925
H 1.9802501 0.42029113 -2.1126986
H 1.3374183 1.7368251 -3.1081479
H -0.055365283 1.4019227 -2.060156
