16

C 2.0311458 0.21536729 -0.66841614
C 0.6649732 -0.2529694 -0.21864396
O 0.6119003 -1.4761013 0.32653442
C -0.22685106 0.82830626 0.3698706
C -1.7136623 0.49271855 0.49702463
O -2.5678225 1.3293521 0.26140574
N -1.969305 -0.7691563 0.9150078
H 2.5937896 0.4268044 0.24852017
H 1.9880948 1.1187129 -1.2828659
H 2.5448701 -0.58843195 -1.1994226
H 0.032691095 -0.40137407 -1.4964683
H 0.10699783 -1.1925704 -0.94958234
H 0.17855267 0.9879842 1.3797066
H -0.14704062 1.7648621 -0.18663928
H -2.931496 -1.059549 0.9949212
H -1.1968385 -1.4239553 1.0090472
