15

C 1.2804145 1.5247335 -0.28818733
C 0.70738643 0.15561011 -0.25471357
C 1.0652639 -1.2688793 -0.08762615
N -0.026846828 -0.57110476 0.57907134
C -1.3572195 -0.85103333 0.60577136
C -2.232868 0.19545552 1.0395641
N -2.9501646 1.0512314 1.3566332
H 2.0386362 1.6561962 0.49401966
H 0.49351752 2.2706535 -0.14691211
H 1.7590533 1.6993351 -1.2550898
H -0.53195196 -0.010793205 -1.4026932
H 0.7898673 -1.9456954 -0.9021157
H 1.856098 -1.6234763 0.57362527
H -1.261581 -0.41592458 -1.1856848
H -1.6296055 -1.8663086 0.87433773
