16

C 2.105878 0.14488703 -0.54370004
O 1.3351132 -0.9175365 -0.556029
C 0.16847417 -1.0252726 0.060604364
C -0.9048021 -0.03731206 -0.009869356
N -2.042176 -0.2305421 0.5599913
O -2.058707 -1.4192237 1.2842052
C -0.7981121 1.242441 -0.796565
H 3.082698 -0.039017983 -0.9762967
H 1.6707711 1.1353539 -0.5990661
H 1.782606 0.16463502 1.2636225
H 1.0936589 -0.22207963 1.4912534
H -0.11611512 -2.0624778 0.19050115
H -2.9657948 -1.4492047 1.6118292
H -0.32464328 1.0794376 -1.7706584
H -0.2232407 2.003011 -0.2558289
H -1.8056087 1.6329014 -0.95399374
