16

C 0.80715317 1.3664837 -1.5066103
O 1.1404806 0.5018834 -0.42955405
C 0.62545615 0.8606108 0.7508125
C -0.13761263 -1.5956327 1.439118
N -0.7704959 -1.6348698 0.2266393
C -1.3644542 -0.54119074 -0.25677943
O -1.339406 0.5000293 0.46668023
H -0.2659688 1.5842342 -1.4982917
H 1.371482 2.304324 -1.4281933
H 1.0862087 0.85130703 -2.427402
H 0.2630228 1.8801942 0.84320796
H 1.1758362 0.46519107 1.5884391
H -0.66657853 -1.0650119 2.219485
H 0.3991245 -2.5008547 1.7024851
H -0.6034836 -2.410449 -0.40022373
H -1.7207643 -0.5662487 -1.2898126
