16

C -0.54228747 -2.513609 -0.9777452
N 0.43390965 -1.4528774 -0.8010026
C 0.32842195 -0.64659107 0.51387715
C 0.2637394 0.75309145 0.21536912
O 0.4750433 1.2278954 -0.8996862
O -0.012673628 1.5193362 1.2928202
C -0.010427553 2.9198456 1.0421705
H -0.43962008 -3.2341533 -0.16185634
H -0.36457688 -3.0310073 -1.9235493
H -1.5601395 -2.1039157 -0.9572598
H 0.4945944 -0.7492101 -1.5412545
H 1.3008411 -1.4158102 -0.023757536
H -0.32831264 -1.1003944 1.2459894
H -0.19641396 3.3935971 2.0072703
H -0.7952447 3.1907134 0.32988924
H 0.95314676 3.2430892 0.6387255
