15

C -1.2772907 0.04689991 1.2409797
C -0.005000234 0.3504673 0.54367024
C -0.33033615 -1.3705003 -1.2762508
C 0.5589872 -0.63348126 -1.945755
N 1.3338326 0.22289069 -2.2909896
C 0.81137764 1.3039814 0.096696824
N 1.3754818 0.08852109 0.8459236
H -2.1319754 0.43739572 0.6830647
H -1.4124557 -1.0258733 1.3988036
H -1.2586015 0.5364284 2.2245562
H -1.3769308 -1.3391833 -1.5618743
H 0.026705928 -2.2072093 -0.68532425
H 0.88613355 2.366346 0.28686017
H 1.2825034 0.93880546 -1.4079072
H 1.5175685 0.28451172 1.8475463
