15

C 1.3397162 1.841914 -1.1848347
N 0.8832212 0.54974043 -0.7253034
C 0.69820744 -1.9716625 -1.0724301
N -0.050294008 -1.7780997 -0.10501979
C -0.61452365 -0.7950072 0.5177534
C -1.7258412 -0.966003 1.5091692
C -0.08532396 0.49984634 0.105125464
H 0.8095586 2.6897771 -0.7240367
H 2.410875 1.9440682 -0.9782603
H 1.2137468 1.9020458 -2.2713654
H 1.7336603 -2.2773972 -0.8955942
H -1.8202865 -2.0169106 1.7935373
H -1.5412823 -0.3821457 2.4181654
H -2.6894267 -0.64039034 1.0974019
H -0.5620073 1.4002239 0.5156917
