15

C -0.09445506 0.77743196 1.3302056
C -0.3882544 0.03046524 0.17818981
C -1.563746 0.4350093 -0.68219006
N 1.1282368 0.06692488 -1.6101046
C 0.77778333 -0.8118529 -0.6290273
C 1.7713115 -1.2417746 0.39055806
N 2.544395 -1.5190644 1.2073473
H -0.6963981 -0.5643443 1.1655618
H -0.637283 1.6870171 1.5863285
H 0.70910627 0.4601913 1.9932212
H -1.4075066 1.4259102 -1.1119417
H -1.6925545 -0.26627964 -1.5099101
H -2.479317 0.4591945 -0.08196568
H 1.7597736 0.7637467 -1.2076093
H 0.2689081 -1.7025757 -1.0186632
