16

C 1.2878783 -1.436252 0.3795339
N 1.8171177 -0.07468179 0.23046093
C 1.3892851 0.98083436 -0.451495
O 0.22826423 1.1338396 -1.0998646
C -0.93068755 0.2900735 -0.9499594
C -1.7277089 0.7169341 0.27060586
O -1.058255 0.455153 1.4857101
H 2.0240176 -2.0169797 0.93985486
H 0.35637483 -1.3991544 0.9525674
H 1.114203 -1.9298187 -0.58362925
H 2.6107025 0.61839736 -0.43750542
H -1.5181109 0.45664978 -1.857681
H -0.6601826 -0.76472664 -0.8972847
H -1.9812553 1.7823237 0.17401102
H -2.663339 0.1487223 0.30510277
H -0.28830382 1.0386858 1.5395726
