15

C -0.26897815 1.2946233 0.96691585
C -0.077869564 -0.19789694 0.77144295
C -1.3852773 -1.2689131 -0.42169067
N -0.42614233 -0.8857555 -1.4128438
C 0.6894529 -0.6092273 -0.51848906
C 1.6501033 0.39432842 -1.0166341
N 2.3819575 1.2101923 -1.386145
H -0.7107263 1.7532418 0.07449809
H -0.9198143 1.5061688 1.8201462
H 0.69929 1.7780555 1.1415994
H 0.24717535 -0.7138934 1.677423
H -1.3458425 -0.4521288 0.526037
H -1.047809 -2.2139387 0.030793099
H -0.72584224 -0.0540736 -1.9133191
H 1.2403225 -1.5407828 -0.3397338
