16

C -1.7252921 -1.3499167 0.15310982
C -0.55795693 -0.41061845 0.32942647
O 0.69611466 -1.3419272 0.6442633
C -0.042840715 0.21165568 -0.9045748
N 0.6533426 1.4741588 -0.69248736
C 1.6342001 1.6691474 0.1854092
O 2.0415003 0.8429461 1.0226084
H -2.652461 -0.7698272 0.09936273
H -1.8025451 -2.052777 0.9868869
H -1.6179831 -1.9184817 -0.77646244
H -0.63102543 0.19655311 1.2376522
H 1.3419118 -0.6439206 1.0033257
H 0.89251363 -1.1382508 -0.4056935
H -0.7638966 0.31272388 -1.713296
H 0.44946778 2.2460456 -1.3101312
H 2.0849497 2.6724892 0.14060076
