17

C -1.5011564 -1.0455912 -1.3841919
C -1.0952489 -1.1713687 0.06456732
N 0.19653854 -1.7253222 0.43670768
C -0.052454907 -0.2962968 0.6788677
C 0.6105401 0.7146271 -0.18369716
C 0.78587466 2.035408 0.4494387
N 2.0460823 1.3127291 0.6593526
H -1.7918142 -2.0246577 -1.7819078
H -0.6802847 -0.6459065 -1.9855753
H -2.3575644 -0.37034687 -1.4894558
H -1.8951164 -1.4906254 0.7327959
H 0.7731952 -1.8072927 -0.40063947
H -0.17340098 -0.060503796 1.7438172
H 1.951985 0.62249887 -0.29458886
H 0.89169 2.9254692 -0.16893838
H 0.25161734 2.2253587 1.3816274
H 2.0395179 0.80182093 1.5418202
