21

C -0.45091924 2.8389308 2.3731656
C -0.6049706 1.4012791 1.9452496
C -0.13156238 0.9774012 0.68477035
O 0.26538423 -0.24766189 0.46437764
C 0.36936185 -0.6400902 -0.9208782
C 0.66743034 -2.1235795 -0.97199905
C 0.7750781 -2.6094103 -2.416249
H -0.5869427 3.5212944 1.5241001
H -1.2078149 3.101845 3.1182883
H 0.5333289 3.0496287 2.8120742
H -0.7288379 0.6188457 2.6888692
H -1.5568224 1.1966407 1.0061097
H 0.08360604 1.7262574 -0.07794493
H -1.8726922 0.8268285 -0.20670955
H 1.1698384 -0.05127992 -1.3894932
H -0.5923894 -0.39302924 -1.3872765
H -0.13549098 -2.6559043 -0.44959363
H 1.5971136 -2.3291252 -0.4278932
H 1.6005299 -2.1166306 -2.9436374
H -0.1471281 -2.4041703 -2.9717338
H 0.9538992 -3.6880713 -2.4535956
