16

C 1.4257275 -1.7918291 -1.2903985
C -0.059380405 -1.4987706 -1.2831426
N -0.60459566 -0.36163914 0.867386
C 0.083921574 0.7355132 0.6058964
O 0.73309207 1.2569919 -0.26399586
O -0.2322868 1.280679 1.8652451
C -1.1652046 2.363801 1.7710083
H 1.6728561 -2.6370237 -0.64104503
H 1.7482184 -2.0416944 -2.307725
H 1.9883875 -0.9133783 -0.9635858
H -0.32056767 -0.60280997 -1.8470448
H -0.68365467 -2.3435094 -1.592531
H -0.4117317 -1.3309686 -0.20442748
H -1.3139625 2.7268343 2.7882562
H -0.7466837 3.1508648 1.1377654
H -2.1141353 2.0069396 1.3583378
