16

C -0.12265563 0.9152225 1.8097348
C 0.42821664 1.5307529 0.52903914
N 0.71674037 0.5521069 -0.5354504
C -0.4120985 -0.054182425 -1.028702
O -1.4977576 0.32509398 -1.3087395
O -0.36094776 -1.6698757 0.0024859686
C -0.18782568 -2.062924 -1.230191
H 0.5691956 0.17239283 2.2202797
H -0.27849573 1.6962237 2.5613015
H -1.0759057 0.41238713 1.6244683
H -0.27168596 2.260679 0.112339504
H 1.3726234 2.052227 0.71359885
H 1.380393 -0.1493318 -0.22522919
H 0.670234 -2.7203588 -1.4708327
H -1.0734538 -2.278917 -1.8565681
H 0.14342296 -0.9814962 -1.9175347
