16

C 1.6596602 -1.7146965 -0.304449
N 0.5750012 -0.76716447 -0.46296433
C 0.5525984 0.36071232 0.10695338
O 0.47442126 1.70602 -0.8344831
C -0.809174 1.5784042 -0.82095796
C -1.1805793 0.5628524 0.8936371
O -1.8224825 -0.6062436 0.565332
H 1.3981978 -2.5191882 0.39540103
H 1.8780013 -2.1812549 -1.2712928
H 2.586285 -1.2429444 0.051457297
H 1.2018502 0.7852876 0.87457955
H -1.4039515 2.5020897 -0.8269556
H -1.2862992 0.7066586 -1.283126
H -0.7803567 0.60280824 1.9167451
H -1.9271692 1.3750147 0.8766671
H -1.1160034 -1.1483558 0.12345642
