15

C 0.21099463 1.5215386 -0.4476108
C -0.15072149 -0.12151009 -1.4619555
C 0.9603038 -0.9800728 -1.0327204
N 0.54550934 -0.12227471 0.060909446
C -0.24392672 -0.7659284 1.1006801
C -1.2091055 0.14891462 1.734341
N -1.9877913 0.83042496 2.2497654
H 1.0887765 1.8515613 -0.9952392
H 0.27330583 1.8836348 0.59078175
H -0.69787186 1.9465351 -0.88014096
H -1.1279262 -0.59815085 -1.295924
H 0.7536949 -2.0263014 -0.8077818
H 1.9740316 -0.8089904 -1.3969675
H -0.8171672 -1.6165931 0.70052624
H 0.42789364 -1.1427875 1.8813362
