15

C -0.8544911 1.21017 -0.38994673
C -0.07800365 -0.09118175 -0.26849535
C 1.0293562 -0.10044666 0.7814401
C 0.5043012 0.019339083 2.1461425
N 0.06160828 0.11843866 3.209903
C -0.4505188 -1.6714319 -1.16646
N 0.41445136 -0.5942574 -1.5497583
H -1.2342777 1.5336536 0.58406657
H -0.19958146 1.9926507 -0.79029137
H -1.7039572 1.0792059 -1.0673001
H 1.7095933 0.73635256 0.5847292
H 1.6129452 -1.0220782 0.69636005
H -0.9421401 -0.8486316 0.013232127
H 0.17160997 -2.2966547 -0.49157292
H -0.04089562 -0.0651287 -2.2920482
