16

C 1.5183669 -0.48619288 -1.2442975
C 0.22878447 -0.6472922 -0.45139688
O 0.46654463 -0.8259803 0.912551
C -0.6930237 0.6006928 -0.6094535
N -1.5928049 0.5539092 0.53782195
C -0.8959345 0.35999915 1.6873475
O 0.12684783 1.1124294 2.0013037
H 1.3118017 -0.34324592 -2.311797
H 2.147236 -1.3731792 -1.1265873
H 2.0793066 0.38270712 -0.8801513
H -0.32045275 -1.528155 -0.82823527
H 0.7867155 0.33439586 1.4894257
H -0.10643142 1.522133 -0.5468587
H -1.2653198 0.6076382 -1.5407186
H -2.357233 -0.10267901 0.42950386
H -1.4344033 -0.1671801 2.4815426
