16

C -1.8397695 -0.9760737 -1.142093
C -1.2960126 0.44512063 -1.248036
N -0.36376446 0.7300812 -0.17084143
C 0.9131213 0.5479816 -0.31902382
O 1.8036469 0.19629732 -1.0304061
O 1.237663 1.0051183 1.2050831
C 1.9353702 0.008217651 1.948835
H -2.2701085 -1.1404933 -0.14869809
H -2.6156216 -1.1628544 -1.8921192
H -1.0342376 -1.7034084 -1.2891014
H -0.7983826 0.59104794 -2.2156181
H -2.1128714 1.1725494 -1.191476
H 0.07901858 0.99250543 1.1128243
H 2.3093765 0.4641412 2.8671331
H 1.2813529 -0.83977616 2.1833632
H 2.771219 -0.33045483 1.3301739
