17

C -0.51151496 -0.0918064 1.0521351
C 1.7507155 -0.80904895 0.3552399
C -1.9355524 0.7303338 -0.87713414
C 0.8703812 -0.46408272 1.4388088
C 1.3393961 -0.7627127 -0.9940523
C -0.5447515 0.5002626 -0.3779246
O 0.096954465 -0.37904587 -1.309018
H -2.4767072 1.4326824 -0.24665378
H 1.9836533 -1.0420924 -1.828993
H -0.9547236 0.63344675 1.7428901
H -1.9281003 1.166117 -1.8965615
H 2.7348883 -1.2421262 0.5613744
H 0.026197426 1.4439952 -0.37426296
H -2.4842322 -0.20305078 -0.93568426
H -1.1887271 -0.96219766 1.0306967
H 1.9610379 0.3456234 0.22879958
H 1.2610855 -0.29629755 2.4303393
