17

O 1.7829785 -0.8124382 0.021968592
C -0.0072510424 0.05109517 -1.5420771
C -1.0189074 -0.70808077 -1.1858875
C -1.1837815 -1.0006442 0.26767966
C 1.2687402 0.2391467 -0.5635616
C 0.36008906 1.0156087 0.27907887
C -0.7205277 0.26614052 1.0200534
H 0.22821778 2.0871959 0.11416245
H 1.6965705 0.78024936 1.6474428
H -0.54011047 -1.8389717 0.53436804
H -2.2278373 -1.2614056 0.5275636
H -0.35426885 -0.023851885 2.0151794
H -1.7291664 -1.1007725 -1.9358532
H 0.10508692 0.4190253 -2.5631688
H -1.5623528 0.9505481 1.1777934
H 1.9543505 0.031278715 1.3097942
H 1.9481696 0.9058766 -1.1245365
