17

C -1.3434871 0.65429133 -0.85567194
C 1.2477403 -0.89384604 0.6748154
O 0.78049684 0.33718446 1.2289271
C 0.76775324 1.4658246 0.39940405
C -0.43783244 1.5907702 -0.5204361
C -1.1725093 -1.2518331 0.10345723
C 0.19629857 -1.6032226 -0.1114067
H -0.53801525 2.5753582 -0.9263968
H -1.9643638 -1.7836804 -0.4221355
H -0.5645985 -0.5467226 -0.8138982
H 1.6892551 1.5336903 -0.22130816
H 2.1761563 -0.6945291 0.09359664
H 0.7839013 2.3300374 1.0662317
H -2.190009 0.9301717 -1.4709187
H -1.4564446 -0.7503761 1.015793
H 0.4697999 -2.4087057 -0.7960322
H 1.555859 -1.4844124 1.555979
