17

C -1.0386868 0.5292165 1.3298303
O 1.3379742 0.20765887 0.14566784
C -1.2582282 -0.80714977 0.53660005
C -0.7933566 1.2407024 -0.013527765
C -1.1125247 -0.036882076 -0.7581302
C 0.5006884 0.86888564 -0.69401777
C 2.3472097 -0.5185866 -0.5018786
H -0.0021418117 -0.040876817 -1.4923283
H -1.9430966 0.8457353 1.8367357
H -1.7705876 -0.087672144 -1.6144896
H -0.50385696 -1.5744208 0.72433996
H 1.9771477 -1.4949956 -0.8271046
H -1.2125238 2.2211094 -0.21935405
H -0.18429178 0.5272536 2.0209932
H 2.7507572 0.03067079 -1.3636732
H 3.1563656 -0.6704732 0.22213925
H -2.2508478 -1.2401756 0.6681974
