17

O -2.1316118 0.11859435 1.1211077
C 1.4398052 -0.46013576 -0.24279594
C 0.062158212 1.0423684 1.2602005
C 1.2465068 0.538525 0.8695919
C 0.14214632 -1.0548908 -0.7838741
C -0.7759352 0.049962807 -1.3074973
C -1.2737005 1.0575478 0.66434735
H -0.2986861 0.636326 -2.0701594
H -0.35774687 -1.6329035 0.015532214
H -1.754849 -0.331931 -1.6203102
H 2.132219 0.85084504 1.403501
H -1.6860929 -0.5393067 1.6659309
H 2.1331701 -1.2311218 0.08677527
H 0.023363255 1.6143353 2.198004
H 1.9666939 0.06426162 -1.075868
H 0.37484127 -1.755963 -1.570154
H -1.2422818 1.0334859 -0.6143317
