17

C 1.2454076 0.47077113 0.2763844
C 1.3654327 0.5776359 -1.1483679
C -1.0069971 -0.61068314 0.64452827
C -1.6578467 -0.96316284 -0.6455564
O -0.82636005 1.5586314 0.38820577
C 0.37456924 1.6562649 0.53786606
C 0.3618437 -0.8381227 0.8897818
H -2.1000485 -1.9706398 -0.57381344
H 0.49289918 0.7868195 -1.7243046
H 2.2999423 0.46535045 -1.6740117
H -1.6715254 -0.4058678 1.4604392
H 0.638429 -0.8837206 1.95353
H 0.7942975 -1.6784377 0.34628996
H 2.2205606 0.49918452 0.7730919
H -0.898178 -0.9799331 -1.4527369
H -2.4598858 -0.28940582 -0.9268335
H 0.8274596 2.6053157 0.87550676
