17

C -1.1195948 1.1871868 1.3840013
C -0.7857762 -0.06043263 0.64155346
C -1.1890601 -0.24776518 -0.81209624
C 0.2518686 -0.29272777 -1.2305433
O 0.8295305 0.6634313 -0.21663265
C 1.9082792 -0.3161965 -0.036937974
C 0.9956529 -1.4077768 -0.49858883
H -0.4488916 1.3301718 2.2368767
H -2.1397061 1.0728853 1.7810184
H -1.0846297 2.0751936 0.7487799
H -0.6853298 -0.95826143 1.233076
H -1.7121329 -1.193435 -0.9880047
H -1.76884 0.60133475 -1.1957524
H 0.55986714 0.067381136 -2.2295194
H 2.327133 -0.29336265 0.9772084
H 2.677587 0.04232461 -0.74821144
H 1.3840425 -2.2699516 -1.0462272
