17

C 1.0320953 1.4844989 -1.4013107
C 0.41175205 0.7705313 -0.21667267
C -0.99352235 0.18168432 -0.51656896
C -1.4737562 -0.6088241 0.6496563
C -0.44810143 -1.32225 1.39132
C 0.9377763 -1.096114 1.1337698
O 1.3109314 -0.2940675 0.116262
H 0.4139912 2.3394325 -1.6944335
H 1.108574 0.8021667 -2.2548568
H 2.0360174 1.845187 -1.1583885
H 0.33941457 1.4460508 0.64433
H -0.8857026 -0.39975595 -1.448235
H -1.6915029 0.9962063 -0.74923337
H -2.4594882 -0.46923804 1.0765133
H -0.70432866 -1.7488344 2.3615592
H 1.7173098 -1.7842702 1.4392434
H -0.6514595 -2.1424034 0.6270457
