17

O -1.0636504 0.10640175 -2.1879892
C -0.6064729 0.07544329 -0.90119237
C 0.63491976 0.9199691 -0.6259095
C 1.2089343 0.39764327 0.6944698
C 0.859672 -1.0872123 0.6983118
C -1.475971 -0.764273 1.2144144
C -1.6482786 -0.017199548 0.12535688
H -0.40904546 0.5350693 -2.754506
H -0.01025138 -1.057565 -0.27735022
H 0.41566744 1.9949007 -0.6251888
H 1.3544888 0.7296018 -1.4376129
H 0.72958004 0.8973945 1.5401781
H 2.287327 0.5805925 0.75863755
H 1.5665649 -1.6725235 0.088718385
H 0.79762495 -1.5547814 1.6738442
H -2.0617006 -0.5829484 2.123851
H -2.579409 0.49948704 -0.10803307
