17

O -0.20578106 -0.785485 -2.013928
C -0.17627402 0.37463388 -1.4173949
C -0.8889308 0.470698 -0.13743658
C -0.6710539 -0.62653565 0.84466815
C 0.68620706 -0.36191624 1.5375305
C 1.6105927 0.28585553 0.5512701
C 1.210141 0.7039659 -0.6468797
H -1.7877374 -0.83686507 -1.5965346
H -0.3561269 1.2760279 -2.0384116
H -2.2987132 -0.4600335 -1.0695481
H -1.1939001 1.4506142 0.2377673
H -0.62101525 -1.5637857 0.28454578
H -1.4812509 -0.6718905 1.5774044
H 0.55627483 0.31235665 2.39558
H 1.1013002 -1.296549 1.9318454
H 2.6402254 0.4648569 0.85719204
H 1.8760422 1.2640517 -1.2976705
