17

C 0.580961 1.3161492 0.60314775
C -0.5519532 0.7769805 1.4309778
O -1.3530186 -0.14298235 0.6937168
C -0.76438457 -1.3936701 0.41112489
C 0.041168515 -1.5073155 -0.8771539
C 0.6568584 -0.52526736 -1.5386237
C 0.3678816 1.4167533 -0.7991033
H 0.92095125 0.2970977 -0.37865695
H 1.4989096 1.6768823 1.0519879
H -0.17749304 0.30616957 2.3553863
H -1.2724292 1.5515137 1.7290922
H -0.14104274 -1.7284406 1.2584932
H -1.5989807 -2.1016254 0.33941588
H 0.10917809 -2.5433035 -1.2253644
H 1.2270494 -0.72410333 -2.4465487
H -0.6436937 1.3933501 -1.1934938
H 1.1000382 1.9318122 -1.4143978
