17

C -0.29213047 2.4650679 0.3787631
O 0.40238124 1.2395852 0.24582478
C -0.010252433 0.29044124 1.1394725
C -0.8099623 -1.1033454 0.20438775
C -0.23809165 -1.0545207 -1.2079858
C 1.1834016 -1.1643221 -0.6006338
C 0.56466687 -1.061133 0.8100897
H 0.26418978 3.213596 -0.19043788
H -0.35848477 2.7612388 1.4307969
H -1.3076806 2.3804972 -0.03318432
H -1.2263182 0.006948981 0.8522234
H -1.6252218 -1.737079 0.5528217
H -0.5318212 -1.9081024 -1.8248136
H -0.44480377 -0.12790917 -1.7528628
H 1.6346734 -2.1435516 -0.77972955
H 1.8929076 -0.3763788 -0.8635608
H 0.9025467 -1.6810333 1.6388289
