19

C -1.1226702 0.2972268 -0.27947855
C 1.1528976 0.6532674 -0.9832813
C -0.77023333 -1.0230004 0.20643158
C 1.6158403 -0.6683119 -0.38229162
C -1.8087411 -0.23112738 0.9471177
C 0.6481705 -1.1397083 0.74240124
O -0.5663101 2.0972037 0.35041624
H 1.9120777 1.4418788 -0.8635137
H -1.643591 0.53928155 -1.1875545
H 0.8615343 -2.1472337 1.0764426
H -1.5030794 0.1673884 1.9028707
H -0.9648864 2.6941593 -0.285678
H 0.24903406 1.5444299 -0.19285968
H 1.6820474 -1.4433913 -1.1449361
H 0.7548849 -0.4716656 1.6084111
H 0.8719673 0.6010412 -2.0424364
H 2.6168907 -0.59155935 0.055270832
H -2.8551192 -0.4690251 0.8690402
H -1.130714 -1.8508542 -0.39637265
