15

C 0.83509386 -0.41393718 -0.28101996
C -0.45282263 0.42576778 -1.8852701
C 0.28893062 0.017127953 0.93394905
N 0.100716405 1.3162754 1.1205057
O 0.23991683 2.0393107 0.06209863
C -0.2694339 -0.9354664 1.9790771
H -1.3494534 -0.1609703 -1.6385304
H -0.5948734 -0.3426556 2.8441331
H 0.22260688 -0.12535115 -2.5267353
H -1.1422585 -1.4541616 1.5804945
H 1.6266102 0.17275208 -0.7179697
H -0.76880634 1.3303059 -2.4037757
H -0.009485917 1.276597 -0.87460756
H 0.44404045 -1.6702434 2.3123693
H 0.8292188 -1.4753509 -0.50471795
