19

C -1.4921972 -0.8156114 0.9058259
C 1.3647075 1.3339087 -0.03045734
C -0.3545727 -1.8437496 0.63799655
C 0.9766247 0.21737657 0.5902199
C 0.7283345 -1.0764747 -0.10686783
C -0.074782 1.7923446 -1.4487139
O -0.9933716 0.41723698 1.1466645
H -2.1198394 -0.8572239 -0.015343487
H 1.2326628 0.15932761 1.645215
H -0.1328092 2.8629029 -1.5931649
H 1.1560305 1.4896592 -1.2752396
H 0.4073984 -0.8652694 -1.1220684
H -2.101907 -1.2052622 1.7288947
H -0.20523158 1.2277051 -2.3604455
H 1.3820987 2.3216841 0.42388928
H -0.7119596 -2.7135453 0.09020592
H -0.7607399 1.3995663 -0.6535968
H 0.044784337 -2.184496 1.6062509
H 1.6547686 -1.6600783 -0.16926473
