16

C -0.4532794 -0.09470701 0.42553076
C -1.191412 -1.3458852 0.86062473
C 0.2411916 1.2117844 -1.3792601
O 0.2641045 2.366709 -0.76678413
N -0.6561782 0.22497852 -0.9990318
C 1.1007829 -0.1765843 0.58616066
O 1.6724567 0.7152414 -0.33313733
H 1.1940284 1.8964183 -0.2148041
H -0.8256048 0.7564844 0.9778024
H -0.8371452 -2.2208595 0.29159436
H 0.5500565 1.1609206 -2.431611
H -1.0264302 -1.5486951 1.9088722
H -2.2567341 -1.2472043 0.6706938
H 1.4210724 -1.1907258 0.36619383
H -0.5624078 -0.5939106 -1.5710065
H 1.3654989 0.08603468 1.6081619
