15

C -0.97109336 -1.1980647 0.13630563
C 0.8967491 0.5560547 0.33969975
C -1.6044933 -0.0027963251 0.43714887
C 1.8269333 -0.42284742 -0.26718545
O -2.35178 0.3397199 1.3619283
N -1.1221366 1.0909958 -0.43302754
H 1.033429 1.5882736 0.008722755
H 1.739183 -1.4181445 0.17087306
H 1.6960285 -0.4873767 -1.3361832
H -1.34041 -2.066644 0.6776966
H -1.2777864 0.94186276 -1.4269869
H -1.5073566 1.9765688 -0.1305049
H 2.8601956 -0.031043459 -0.0785107
H -0.5537275 -1.3401726 -0.8488971
H 0.67626494 0.47361454 1.3889209
