19

C 0.7347164 -0.2304806 0.5137712
C 2.0242138 0.53205174 0.7773747
O 0.28529868 -0.9211208 1.5111994
C -0.65568507 1.2846056 0.09703045
C -1.046711 -0.7311666 -1.1707337
C 0.49721396 -0.7799268 -0.8745068
C -1.6021744 0.32497048 -0.26986077
H 1.9970137 0.9632603 1.7500453
H -1.1253649 -0.8474749 1.4620448
H 1.0395404 -0.19185004 -1.6260003
H -1.2472619 -0.5075335 -2.2114866
H -1.7966851 -0.56826514 1.0727351
H -1.502088 -1.7110164 -0.9668282
H 0.092513956 1.586471 -0.61229473
H 0.8611536 -1.7961591 -0.91504407
H -0.9311016 2.0359921 0.84689254
H -2.6868353 0.4708969 -0.14565493
H 2.2129765 1.2993996 0.01480597
H 2.849266 -0.21265344 0.7465106
