19

C 1.6724687 -0.31157544 1.0175661
C -1.8809364 0.61222607 0.99879885
O 0.48845115 0.20278253 0.44150317
C -0.685869 -0.18241324 1.007559
C 2.8365047 0.14061244 0.17025012
C -1.8093656 0.8043588 -1.8618087
C -1.8031948 -0.52565324 -1.9829673
H 1.600933 -1.4055303 1.0641255
H 2.882358 1.2346114 0.16404063
H -0.9440993 0.5082957 2.0271213
H -2.722014 -1.0991833 -2.0996041
H -0.87938744 -1.0860164 -1.913046
H -0.6668726 -1.2084111 1.3767895
H -2.7052453 -0.04448264 1.3034447
H -2.7370052 1.3888701 -1.8755387
H -0.9039178 1.3528214 -1.6381673
H 1.7581303 0.060138877 2.046762
H 2.7329495 -0.20910883 -0.8498491
H 3.7661119 -0.23234296 0.6030213
