19

C -0.65993154 -2.3512988 -1.3956064
C 0.47047192 -0.5113105 -0.02181556
C -0.3504427 -0.89213604 -1.1220249
C -0.7470268 1.517472 1.2095991
C 1.2450656 0.78592914 0.033805486
C 0.76893973 1.601704 1.2098345
O -1.0576134 0.14600304 0.9751354
H 0.7588975 -1.2684855 0.6937832
H -1.2127452 -0.29625845 -0.2576073
H -1.1735693 1.8357524 2.1668615
H -0.2400753 -0.26435944 -2.0070226
H -0.7251738 -2.9139912 -0.4498758
H -1.1785079 2.1712027 0.4343273
H 1.0640724 1.3282992 -0.90752655
H 1.147859 1.1760881 2.1328287
H 0.08029997 -2.8320837 -2.0443933
H 1.1288688 2.6537213 1.162981
H -1.6280245 -2.4447923 -1.8873501
H 2.3086355 0.5585442 0.074065864
