15

C -0.73549056 -0.7579263 0.56133354
C -1.1876684 1.6718497 0.5188485
N 0.29242125 -0.6135338 -0.315365
C 0.17246889 0.34687126 -1.2460389
C 1.5846071 -1.2696248 -0.080223314
O -0.8975179 1.0340661 -1.2199643
H -2.0696237 1.3130708 1.0213271
H -1.7143395 -0.84885657 0.12304523
H 1.0423336 0.56710935 -1.8637401
H 2.2606738 -1.0120845 -0.8882449
H 1.4257632 -2.3479924 -0.05760889
H -0.5195966 -1.4289262 1.4093338
H 1.9864091 -0.9443033 0.8825351
H -1.3388419 2.5968952 -0.020349085
H -0.30159822 1.6933863 1.175111
