19

C -1.0643098 0.9945676 1.9861522
C 0.20441142 -0.034664754 0.107245736
C 0.00096948724 -0.70170635 -2.1599634
C -0.8658651 -0.31826797 -0.9597426
O 1.2614782 -1.1857429 -1.5963178
C 1.3926842 -0.6373991 -0.42724591
C -0.038416397 -0.05898082 1.5826963
H -1.4786553 0.56641674 -1.2366239
H 2.2356074 0.97477436 -1.051991
H -2.018204 0.81433576 1.4936544
H 1.1753571 0.8487016 -0.4499164
H -0.7293048 1.99993 1.728749
H 0.2901096 0.16126478 -2.763467
H -1.2560462 0.9666251 3.0745041
H 2.313178 -0.85752994 0.08193936
H -1.5201125 -1.1123748 -0.6615484
H -0.39505363 -1.4901985 -2.7901602
H -0.39988828 -1.053394 1.9124025
H 0.8920603 0.12364301 2.1296325
