20

C 1.2277839 -1.4486215 1.0274326
C 0.63961977 0.61962336 -0.19884627
N 0.64823145 -0.6919467 0.09143958
C 1.2915616 1.4336864 -1.249542
C -1.5366689 0.11872307 1.1333992
C -0.67516214 -0.09695281 -0.09974566
C -1.4609846 -0.5283366 -1.3273898
H 2.302406 -1.6095413 0.92914367
H -2.230716 0.9185269 0.95288503
H -0.90625006 0.3420334 2.020077
H 0.6627197 -2.2876449 1.4144101
H -2.0993638 -0.80598265 1.3671715
H -2.065118 -1.4185579 -1.107213
H 1.471111 0.12943058 1.9273711
H 1.0179348 2.4931545 -1.1378813
H -0.79354733 -0.73887336 -2.1579452
H 2.380907 1.3553424 -1.1216105
H 1.2454466 0.8280851 1.4247582
H 1.0203792 1.1007589 -2.2731183
H -2.1402903 0.28709292 -1.6147958
