19

C 0.7582176 0.5535195 -0.28572044
C 1.8225449 -0.5040772 1.8204347
C -1.2187814 -0.63534284 0.11516626
O -0.3489639 -1.1457418 0.98019195
C 1.0137857 -0.68071365 0.56600994
C -1.5406688 1.4716215 -1.309305
C -0.7054544 0.35070378 -0.7674476
H -1.61094 2.3193576 -0.6184622
H -2.564523 1.1103314 -1.50498
H 0.8598091 1.4636027 0.30510163
H 1.3725923 0.2556615 2.469296
H 1.3607057 -1.5204734 -0.04918731
H 1.4845824 0.6149477 -1.0884625
H 2.8290732 -0.16593604 1.5372243
H -1.1327097 1.8210597 -2.2673361
H -0.86252594 -0.9064682 -1.3249377
H -1.2136453 -2.074565 -1.2070016
H -2.2335782 -0.9006131 0.25486612
H 1.9304796 -1.4268745 2.3745499
