15

C -0.4720099 -1.7051979 0.69617295
C 0.28905696 -0.4249968 -1.2028838
N 0.02702977 -0.50959945 0.09524192
C -0.17559 1.7652669 -0.2681342
C 0.054900166 0.77825135 0.8322359
O 1.2685976 0.18993902 -1.8981619
H -0.51231635 -2.528153 -0.03733529
H 1.0237843 0.8711498 1.3146714
H -1.4809306 -1.5584276 1.107248
H -0.024368724 -1.3079283 -1.7520518
H -0.69310194 0.6923377 1.6340412
H 0.41633743 2.6924455 -0.16877002
H -1.2353691 1.9882427 -0.418288
H 1.3162948 1.0675958 -1.4481254
H 0.19768557 -2.0109258 1.514139
