15

C -1.2797974 -0.24347438 -0.12017471
C 0.9389822 -0.26955977 0.32345447
C 1.3293161 -0.69584274 -0.92610544
C 1.1236312 1.1472564 0.80028576
O -1.2380266 -0.65598977 -1.3438728
N -2.495394 -0.14489502 0.3784744
H 2.1010194 1.2529676 1.2640524
H 0.37602732 1.4346813 1.5395012
H -3.3376825 -0.33669153 -0.1777959
H 1.6119115 -1.7347206 -1.0624558
H -0.185264 -0.73170334 -1.4708956
H 1.7802509 0.024158316 -1.6102139
H 0.8586681 -1.0086147 1.1077724
H 1.0663835 1.8506607 -0.03935038
H -2.6500258 0.111767754 1.3373237
