15

C 0.41668877 0.95953584 2.032225
C -0.29048243 -0.49705404 -1.4933559
C -0.45887917 -0.12970197 -0.06905722
C 0.26374707 1.0036846 0.50978565
O 0.26199314 0.46244252 -2.1861274
N 0.1589896 -1.8388902 -1.7546958
H -0.55305415 0.9119921 2.5281677
H -1.4574478 -0.490228 -1.6229775
H 0.47140297 -2.373066 -0.97305053
H 0.9509956 1.8296053 2.3986852
H -1.2869618 -0.56261474 0.49542496
H 0.98459 0.064825736 2.330352
H -0.25089118 1.9536332 0.19478473
H 1.2322055 1.0826229 -0.030760994
H -0.44289598 -2.376788 -2.3594003
