16

C -1.3388566 -0.060655214 -0.27845535
C -0.171694 -0.05825394 1.9892855
C -0.4546462 0.5401038 0.6396373
O -1.7968163 0.69862723 -1.3284643
N 1.4614298 0.29743168 -0.33388337
C 1.4321036 -0.41611734 -1.423529
O 0.3413621 -0.95700836 -1.8984413
H 2.313639 -0.6277003 -2.0183399
H -0.45952672 -0.8150273 -0.8850114
H -1.1315203 0.5432374 -2.0153775
H -0.3563596 -1.1253575 2.008232
H -2.0647182 -0.7419549 0.16585295
H -0.807779 0.41460508 2.7249753
H 2.378057 0.61160576 -0.10560813
H -0.22141568 1.5862149 0.48466578
H 0.8767413 0.1102491 2.2744608
