15

C 0.18848789 0.82502735 -1.4724113
C -1.1302717 0.3247338 1.5374572
N 0.11314393 -0.37155968 0.7038681
C 0.9556466 0.43051985 -0.20996834
C -0.089109614 -1.7434826 0.34352073
O 0.3781391 -2.2200139 -0.64983374
H -0.7080889 1.3768799 -1.2104872
H -0.69222397 -2.233384 1.1172448
H -2.0186431 0.021751026 0.968833
H 0.15592065 -0.32766014 1.7869269
H 1.2512323 1.2944043 0.34502655
H -0.96980405 1.384563 1.3498116
H -0.09570207 -0.062939554 -2.043335
H 1.839792 -0.16431765 -0.46656716
H 0.82148117 1.4654783 -2.1000862
