19

C -0.9309088 -1.5873336 1.3876684
C 0.022642754 0.46914357 -0.5124655
C 1.3366826 0.5562281 -1.3199261
C -0.58804786 1.8618995 -0.2856397
C 0.29309872 -0.25789145 0.7879423
C 0.46116376 -1.7418269 0.79271364
O -1.845432 -1.7303971 0.35013047
H -0.7425717 -0.31397527 1.5932643
H 0.47732496 -2.1958938 -0.20229203
H 0.13281266 2.483371 0.27865505
H -0.7804971 2.357103 -1.2335682
H 1.2291139 -2.1515927 1.4433317
H -1.5110815 1.8020059 0.27973652
H 2.0764294 1.1297408 -0.7601846
H 1.7244371 -0.4088532 -1.5173483
H 1.1519926 1.081307 -2.2633126
H -0.6918644 -0.14941505 -1.0541242
H 0.893286 0.29621357 1.5140665
H -2.7085812 -1.4998337 0.72135216
