20

C -0.74139106 -0.8187012 -0.088362515
C -1.2626247 0.26667926 0.8659815
C 2.578746 1.0838804 -0.49817482
N 1.1185576 -0.7925293 0.5079579
C -2.7428184 0.032330178 1.1835526
C 0.65352714 -0.5272511 -1.120205
C 1.9974836 -0.33171242 -0.49641633
H -3.126855 0.76751375 1.8871785
H 1.7913905 1.8316069 -0.33369118
H 0.27653202 0.41775063 -1.5362183
H 2.7355819 -1.0350221 -0.87987477
H -1.3914851 -0.8298222 -0.9753851
H 3.070448 1.3248366 -1.4405762
H -2.9110134 -0.95212805 1.6275587
H -1.1071547 1.2455024 0.41261095
H 3.3051739 1.1771759 0.30794477
H -0.78831655 -1.8249539 0.34314734
H -3.3673532 0.09185299 0.26571274
H -0.6815403 0.2365703 1.7785896
H 0.5931116 -1.3635794 -1.8113306
