15

C -1.2094917 0.6352416 0.17432185
C -2.0429807 -0.38339338 -0.3103271
N 0.7383786 0.11386891 -0.094474986
C 1.771528 0.975487 0.4048318
C 0.91729254 -1.1556506 -0.27309963
O 0.014342809 -1.9335017 -0.77199256
H 2.6895843 0.84482986 -0.15758003
H 1.4453323 2.0080097 0.29144573
H -2.4897368 -0.23980746 -1.2811984
H -2.5934663 -0.97864634 0.40691677
H -1.0586934 0.778007 1.227153
H 1.9701439 0.8008591 1.4705695
H 1.8608066 -1.6354148 0.005696117
H -1.0196345 1.5220946 -0.4297895
H -0.9934061 -1.3519837 -0.66247237
