15

C 1.7857473 -0.76770616 -0.5768054
C -1.0466877 1.4796727 0.17705455
C -0.4669405 -1.0136706 0.22603668
N 0.52131623 -0.8495981 -0.82767695
C -0.67396146 0.27684242 1.0313723
O 2.6946948 -0.80439866 0.18492132
H 1.2020466 -0.6028414 -2.0020826
H 2.1696599 -0.5135591 -1.9994899
H -1.3774887 -1.28795 -0.29106456
H -1.4423565 0.08586403 1.7777019
H -0.24841186 1.7088201 -0.5593208
H -1.9658928 1.27068 -0.3965467
H -0.19742443 -1.8306878 0.8862991
H 0.24889988 0.49268886 1.583022
H -1.2032013 2.3558438 0.7865788
