19

C -0.07013179 2.1325727 0.010468701
C 1.483253 0.056084134 0.20935698
O -1.6627793 1.0512598 -1.460401
C 0.09740238 -1.6200285 -0.27234584
C -0.86594695 0.98242027 -0.3401001
C -0.46894908 -1.9906714 1.0631889
C 0.32774746 -0.28424627 -0.66660285
H 1.3932321 -0.18335906 1.2739933
H -0.4408326 -1.1675335 1.7734218
H 0.5631833 -0.17917523 -1.7072335
H 0.112579465 -2.4172065 -1.0236034
H 1.1675655 1.3309146 0.25594008
H -0.21357697 2.6098232 0.9863268
H 0.040404677 -2.878594 1.5057406
H -1.457143 0.60095453 0.489411
H -1.5133902 -2.2874546 0.93191
H 0.25362492 2.8062136 -0.7799649
H 2.475789 -0.17827901 -0.16557536
H -1.222032 1.6163055 -2.0839312
