15

C -0.61433816 -0.76538503 -0.08147372
C 0.12952133 -0.09286205 0.9093623
C 1.9503027 1.0208114 -0.004036446
O -0.20705771 0.7118996 1.7526581
N 1.52257 -0.12963194 0.46805584
C -2.1169229 -0.7200376 -0.02168931
H -2.515272 -1.584915 0.5103591
H 1.6591233 1.9014858 0.53985405
H 1.8155221 -0.9452633 -0.04665174
H -2.5420017 -0.7147547 -1.0194514
H 0.02419789 0.5916567 -1.1207272
H -2.4512317 0.16708209 0.52101654
H 0.65287155 1.1226051 -1.1809825
H -0.14456372 -1.5933676 -0.60046595
H 2.837279 1.0306767 -0.6258282
