19

C -0.9359663 0.83738124 1.2625505
C -1.0127006 2.3081892 1.182886
O 0.16304986 -0.96545315 0.07465003
C 0.31537232 0.33057463 0.59686726
C 1.0571816 -2.8455 -1.0779629
C -1.7965546 1.8636895 -0.040888414
C 1.3297956 -1.4873956 -0.48746705
H 2.1305037 -1.5436767 0.26060873
H -1.6053656 2.8058512 1.9511014
H 1.0700287 0.34356618 1.3875178
H -2.8461785 2.1012607 -0.016799213
H 0.7174783 1.0105937 -0.1968342
H 0.27225474 -2.790936 -1.833224
H 1.9591506 -3.2676 -1.5353357
H 0.7319563 -3.5212276 -0.29579002
H -1.8462363 0.688756 0.12513931
H 1.7177155 -0.79737014 -1.2853118
H -0.1153984 2.8849387 0.9310487
H -1.3060865 2.0443575 -1.002756
