19

C 0.3422777 -0.004353402 -0.28266528
C 0.021395864 1.215158 -1.1605783
C 1.2966014 1.7272168 -1.8012992
C -0.08589077 -1.1732876 2.2077086
C -1.2737179 -0.712536 0.13499945
C -0.75931627 -1.6615694 1.0663933
O 1.0258735 0.22705264 0.7781101
H -0.24621835 -0.1545263 2.498282
H 0.73897535 -0.80845106 -0.9325289
H -1.2745669 -1.7186089 2.3721073
H -0.70423925 0.9706575 -1.923295
H -1.8502915 -1.1092293 -0.6853543
H 0.6186801 -1.8057088 2.7538009
H -0.6106755 -2.7011306 0.8086433
H -0.41900367 1.985685 -0.52491724
H 1.718327 0.9676208 -2.4904838
H -1.7134993 0.17826268 0.5752285
H 2.0459945 1.9202926 -1.0275861
H 1.1292944 2.657456 -2.3665655
