16

C -1.3673363 1.4287499 0.3608048
C 0.013984318 -1.8875256 0.3514298
C 0.1433854 -0.38102195 0.25842154
O 1.7982732 1.2845137 -0.5594031
N -1.1530107 0.19586585 0.049890615
C 1.1633154 0.05696093 -0.79249716
O -0.37593195 2.0415 0.9540885
H 0.25059393 1.2594413 1.1663995
H -2.3228269 1.9219755 0.3102712
H 0.97150093 -2.315181 0.6373884
H 0.72717786 0.014701285 -1.8281952
H 1.9731048 -0.6856356 -0.77143353
H 1.1283585 1.9523492 -0.43861488
H -0.2929933 -2.369122 -0.58835423
H -0.7021588 -2.183699 1.1361345
H -1.9554363 -0.3338725 -0.24633083
