19

C 0.72430205 0.44086394 -0.68028593
C 1.1016293 1.6439269 0.21695457
C -0.30922127 0.0664277 1.746794
C 0.8793906 0.31230175 0.83755577
C -0.5115822 0.6659917 -1.4533066
C -1.3733588 -1.4398873 -1.4603642
O 2.054265 -0.30070928 1.2916845
H -1.1966391 0.6052322 1.4033371
H 0.36680678 2.4105437 0.3783688
H 1.5644149 0.03327819 -1.2138965
H 1.9572687 -1.2383375 1.1922245
H -1.2775816 -2.132109 -2.3057194
H -2.4214551 -1.2636361 -1.2190601
H 2.1190946 2.001564 0.12865947
H -0.06303357 0.43332675 2.7420254
H -0.9402055 -0.4179427 -2.0247548
H -0.8070506 -1.7893368 -0.61297554
H -0.5549416 -0.98511046 1.8071158
H -1.3121024 0.95361245 -0.77435654
