15

C 0.6368015 -1.5222932 -1.3301216
C 0.7013417 -0.42676887 0.8632851
N -0.33804214 0.4209701 0.53899455
C -0.27919447 1.8403666 0.84212047
C -1.2568254 -0.07036461 -0.28983477
O -1.1080151 -1.2703614 -0.6789364
H 1.2678921 -2.2312965 -0.8064279
H 1.161201 -0.62712425 -1.6541238
H 0.09430724 -1.9891658 -2.1491423
H 1.5244527 0.063220285 1.3803364
H 0.3992418 -1.3992281 1.2327046
H 0.64877564 2.26757 0.44994012
H -0.3123285 1.9929023 1.9240168
H -1.1275473 2.3487604 0.37633905
H -2.0120604 0.602813 -0.6991504
