15

C 1.2790184 -0.7985622 0.9135077
C 0.38022146 0.42518783 0.98872805
N -0.38366488 0.26477164 -0.24697012
C -0.7546574 1.3784212 -1.0957482
C -0.4534916 -1.0075675 -0.65782493
O -0.86762714 -2.1151721 -0.030370137
H 2.1820636 -0.5888219 0.3298577
H -0.28335422 -2.1152883 0.759463
H 1.5786023 -1.1925948 1.8947076
H 0.838277 1.4330181 0.9612099
H -0.2778047 0.40327695 1.8689781
H 0.08281616 2.0803678 -1.1812028
H -1.6183605 1.9159881 -0.68797225
H -1.0213412 1.0115254 -2.0910053
H -0.6806972 -1.0945499 -1.7253581
