16

C -0.6503078 -1.3151249 -1.3412458
C -0.34836885 -0.8016052 0.030854221
C 0.9651761 -0.69278044 0.48460698
O 1.138196 -0.6660306 1.876926
N -1.020348 1.1997931 -0.23735024
C -0.1343814 2.0030305 0.27165866
O 1.1222761 1.8112855 0.06586975
H -1.6171306 -0.9563901 -1.6971642
H -0.6682385 -2.4120014 -1.3114954
H 0.12000675 -1.0039148 -2.0525665
H -1.1283655 -0.88389736 0.7835949
H 1.7354598 -1.2269918 -0.08280771
H 1.1800302 0.58784455 0.067239694
H 1.6629069 0.116356045 2.0911603
H -1.953372 1.4008944 0.11461208
H -0.40353903 2.8395324 0.93610716
