16

C 0.88749766 0.8631901 -1.5385011
C 0.30128145 -0.09669506 -0.52143437
C 0.8747413 0.06827984 0.9185936
O -0.028779816 -0.45655409 1.8343359
N -1.1404994 0.09215767 -0.34854692
C -1.6203518 -0.6432811 0.6855947
O -1.3740616 -1.9245455 0.7867254
H 0.46493244 0.70019406 -2.5341885
H 1.9713445 0.7226457 -1.6008737
H 0.70573217 1.9055301 -1.2476667
H 0.4439091 -1.1304823 -0.8491934
H 1.8494333 -0.43592918 0.9706533
H 1.041849 1.1409098 1.12018
H -0.46990412 -1.6474667 1.4233596
H -1.4126246 1.0685196 -0.2958358
H -2.4945 -0.2264729 1.1967981
