19

C 1.4456457 0.18483289 -2.3788893
C 0.9085996 0.5359097 -1.0073798
C 0.54999214 -0.47234488 -0.0841722
C 0.44433373 -0.21397892 1.3978866
C -0.9975405 -0.44653815 1.8592191
C -1.8651003 0.22421633 0.78718394
O -1.3627135 -0.23774198 -0.44121304
H 2.5250654 -0.016873967 -2.3699293
H 0.9451962 -0.70360225 -2.7812784
H 1.2738185 1.0001519 -3.0892217
H 1.2659516 1.4689186 -0.56921387
H -0.49219894 0.52847165 -0.9727237
H 0.5640567 -1.5153459 -0.39687982
H 1.1465578 -0.873203 1.9226816
H 0.74382883 0.82039785 1.6060481
H -1.1767142 -0.051146273 2.8661282
H -1.2149726 -1.5214537 1.8716645
H -2.9269955 -0.03175703 0.90548277
H -1.7768109 1.3210871 0.87460566
