19

C -2.08152 0.14973861 -2.116004
C -1.0933781 -0.8093874 -1.4862262
O -0.080201946 -0.043617867 -0.85152763
C 0.9081051 -0.80392 -0.25413394
C 2.0941074 -0.25927624 0.28512058
C 1.2208344 0.44340983 2.7456305
C 0.43936798 1.4327279 2.3171675
H -2.88959 -0.4013545 -2.6071694
H -2.5156884 0.8034537 -1.353753
H -1.5809771 0.775484 -2.860671
H -0.6478384 -1.4653404 -2.2502892
H -1.590693 -1.4546505 -0.74517655
H 0.53387284 -1.7556211 0.14616866
H 1.7862726 -1.1248169 -0.97790146
H 2.178691 0.7632219 -0.13033846
H 0.893776 -0.59247506 2.7290516
H 2.2171671 0.6245287 3.1388984
H -0.55553335 1.247622 1.91933
H 0.7632267 2.470272 2.351824
