19

C -0.23694138 -1.3554258 -1.6543623
C -1.4470522 0.32403278 -0.5166946
C -0.5385753 1.242529 0.06904493
C -0.12983154 0.99302 1.5255525
C 0.96273935 -0.10603063 1.4774334
C 1.3330672 -0.13644439 0.00093316915
O 1.0109706 1.0136378 -0.542629
H 0.20809455 -0.7078652 -2.4102073
H 0.29523638 -2.3166664 -1.6100725
H -1.2796488 -1.557598 -1.8812973
H -2.053701 0.6341458 -1.3621923
H -1.8608198 -0.47407806 0.09207538
H -0.6493087 2.2802706 -0.24023104
H 0.28154758 1.9125607 1.9511102
H -0.9894395 0.695658 2.133192
H 0.6242422 -1.0787855 1.8509564
H 1.8296921 0.1950906 2.0763783
H 2.2308254 -0.6209788 -0.38561624
H 0.40890318 -0.93707234 -0.5733739
