19

C -0.19176169 0.61351866 1.3789294
C 0.71325713 0.100738235 0.3121294
C 0.49377686 -1.3413361 -0.16064943
C 0.84642845 -1.2475361 -1.6460185
O 0.5721687 0.13777368 -2.0154185
C 0.40187296 0.82879525 -0.90653944
C -1.748833 0.9519515 0.3313504
H 1.1526141 0.269853 2.3940113
H -0.0010922363 1.6189195 1.7343327
H -0.686437 -0.093690306 2.034173
H 1.7717947 0.21886103 0.6642064
H -0.55505586 -1.626616 -0.030575646
H 1.1223767 -2.0514445 0.38249192
H 0.25309786 -1.8793825 -2.3087025
H 1.9108151 -1.4121395 -1.8395975
H 0.3560627 1.9040936 -1.03806
H -2.2396505 -0.016525201 0.1927638
H -2.286127 1.498234 1.1122932
H -1.8853084 1.5259317 -0.59112024
