16

C 1.37757 -1.1545309 -0.49147874
C 0.3385704 -0.13950017 -0.07519132
C -0.32302973 0.65898764 -1.166596
O -0.23632151 2.0847576 -0.9691686
N -0.60527337 -0.74624443 0.8281461
C -1.2059078 -0.013019264 1.7209784
O -0.9407224 1.2570308 1.7865696
H 2.0177345 -1.4668704 0.34445465
H 2.043602 -0.7189858 -1.2442737
H 0.9640597 -2.0823936 -0.9401478
H -0.18313468 1.3677808 1.1127218
H 0.12420348 0.40800014 -2.1427884
H -1.4030423 0.46916482 -1.2431256
H 0.7029382 2.2534478 -0.8097664
H -0.7629651 -1.7532079 0.8521105
H -1.9082812 -0.42441693 2.4375556
