19

C 0.59267217 -1.9034249 -0.08352186
C -0.018403355 -0.5416599 -0.4215253
C 0.20248583 -0.19485655 -1.8971808
C 0.5312782 0.52490675 0.49768588
C -0.06374802 1.8923552 0.5434989
C -0.65380424 1.2497908 1.7758393
O -1.8995323 0.7569329 1.4425007
H 0.4204395 -2.1703186 0.96593523
H 0.16328152 -2.6950343 -0.7073881
H 1.6770525 -1.8970858 -0.25457016
H -1.1015275 -0.58412915 -0.24012716
H -0.22583067 -0.97120804 -2.5422108
H 1.2719778 -0.11762875 -2.1291766
H -0.26886398 0.7582836 -2.1585898
H 1.60259 0.47518837 0.7090435
H 0.6215097 2.7206411 0.7159819
H -0.80007976 2.1090739 -0.23039815
H 0.18458317 0.2794393 1.7864293
H -2.2360806 0.30873442 2.2277744
