15

C 1.2840804 1.317917 -1.1364021
C 1.234624 0.029310593 -0.2937475
C 0.14572465 -0.009007842 0.6973185
C -1.2157714 -0.5332248 0.34938917
O -1.2961111 -0.42088592 -0.9356552
N -1.6437007 -1.7719847 0.96122074
H 2.1469135 1.2934241 -1.8090266
H 1.3669997 2.209759 -0.5050403
H 0.36514693 1.3776069 -1.723603
H 1.1027378 -0.8242607 -0.9674166
H 2.1723514 -0.054569412 0.27653918
H 0.24331474 0.6596641 1.55929
H -1.7049158 0.38768634 0.8514366
H -2.6135259 -1.9262382 0.6990438
H -1.5878681 -1.7351965 1.9766531
