20

C -1.4634331 -1.2029227 2.2033725
C -0.672257 -0.8143209 0.94779915
C -0.072025046 0.5446982 1.1540316
N 0.2825673 1.1673017 -0.6377991
C 1.5113764 1.3754034 -0.13355225
C -0.10120217 0.5633045 -1.7170557
C 0.8120221 -0.14580618 -2.6793773
H -2.2513123 -0.46919566 2.4091973
H -0.81601954 -1.2515235 3.0863473
H -1.9389503 -2.181315 2.0825157
H 0.12272899 -1.545632 0.7590819
H -1.3234353 -0.81571466 0.067210756
H 0.7091104 0.52641755 1.909346
H -0.79866797 1.3279446 1.3640176
H 2.4043086 1.2721949 -0.76005095
H 1.5975215 2.0656357 0.6961175
H -1.1672175 0.59971195 -1.9349966
H 1.0023831 0.44563496 -3.5868497
H 1.7847911 -0.36279184 -2.223352
H 0.37771088 -1.099025 -3.006004
