19

C 1.3033679 1.1107539 1.4079194
C 0.10929497 0.72839737 0.5534471
O -1.0345109 1.0259721 1.0334784
C 0.2375518 0.80817795 -0.98074543
C -0.6681326 -0.29305977 -1.5716956
C -0.731239 -1.3854173 -0.5228506
C 0.32790294 -1.3441296 0.37527716
H 1.5070205 2.1782157 1.2529589
H 2.2120073 0.5530061 1.1624637
H 1.0534015 0.96788734 2.4619143
H -1.8530556 -0.05425601 0.73584
H -0.06825304 1.8058308 -1.312644
H 1.2809881 0.6653069 -1.2855624
H -1.6736994 0.092564 -1.7630187
H -0.28699905 -0.67740947 -2.525305
H -1.3954031 -2.2361314 -0.65453696
H -1.9647498 -0.8435592 0.40282312
H 1.31082 -1.0913721 -0.0061999285
H 0.3336875 -2.0107777 1.2364361
