15

C 1.3265336 -0.5181959 1.141546
C -0.1812917 -0.28867477 1.2005794
C -0.89420885 -0.6806653 -0.09385994
N -0.3942626 0.050061204 -1.2639766
C -0.58657366 1.3320601 -1.3771582
O -1.0251584 2.3480582 -0.9735463
H 1.8089426 -0.22929902 2.080711
H 1.5566611 -1.5740505 0.955027
H 1.780654 0.068150565 0.3359225
H -0.39572963 0.76653695 1.4144678
H -0.62210023 -0.87080157 2.019802
H -1.9763181 -0.5268156 0.0022948356
H -0.7324717 -1.7414552 -0.3100187
H 0.18812497 0.45667753 -2.4398663
H 0.14719872 1.4084136 -2.6919246
