15

C -1.182643 -1.1602815 1.0558684
C 0.18191063 -0.60889935 0.66636884
N 0.13014476 0.24445869 -0.52116704
C 1.6384684 0.2911192 -1.4875255
C -0.50594914 1.4861498 -0.4493483
O -0.9606324 1.9478971 0.5666017
H -1.0813559 -1.8190219 1.9238626
H -1.6163892 -1.7420847 0.23568088
H -1.8692026 -0.3516831 1.3180611
H 0.87408197 -1.4205726 0.42362347
H 0.6200581 -0.019964622 1.4787757
H 0.22041689 -0.22624771 -1.4868993
H 2.3310924 -0.00351407 -0.6874133
H 1.7495154 1.3776374 -1.6140515
H -0.5295159 2.0050075 -1.4224378
