19

C -0.3010202 -2.5359354 -1.1535431
C 0.04860375 -1.5526087 -0.038677353
C -0.48718727 -0.15143725 -0.36814144
C -0.40517455 0.7250052 1.2812501
C -0.15005727 2.0176709 0.7660887
C 0.9973906 2.157341 -0.051055856
O 0.1842515 0.5001896 -1.254191
H -1.386415 -2.6815116 -1.2173539
H 0.0448255 -2.1493526 -2.1173043
H 0.15891872 -3.5162709 -0.98582286
H -0.3299204 -1.9211079 0.92454815
H 1.139826 -1.4550135 0.04172174
H -1.5933211 -0.15718435 -0.47658646
H -1.3022954 0.60113674 1.888286
H 0.45642442 0.20754771 1.7024078
H 0.9596343 2.7294888 1.1239777
H -0.9374094 2.757796 0.64239085
H 1.0849853 2.964412 -0.7695721
H 1.8179404 1.4598339 0.061577313
