19

C -0.1441303 -1.2158761 -1.3818951
C -0.2833552 0.28114247 -1.0248199
C -1.362922 0.66206306 -0.15012373
O -1.0410985 0.8450757 1.1060637
C 0.4275511 0.75322247 1.2308078
C 0.78577507 -0.48338592 2.0301375
C 0.9326866 0.8096606 -0.22464933
H -1.0267092 -1.4785541 -1.9702512
H -0.095487066 -1.8516434 -0.4899446
H 0.77058375 -1.3699507 -1.9676287
H -0.71389496 0.6980876 -2.0169182
H -2.373807 0.8805639 -0.47384152
H -2.2283883 0.14554784 -2.300274
H 0.69385636 1.6519691 1.7925991
H 0.30098504 -0.45701605 3.0107076
H 1.8703548 -0.51204884 2.1784973
H 0.48373038 -1.4005731 1.5154732
H 1.8319111 0.2007832 -0.35899478
H 1.1723585 1.8409324 -0.5049458
