19

C 0.96807057 1.144876 -0.68900883
C -0.4351462 1.6746813 -0.43582112
C -1.3996812 0.53444165 -0.04839297
C -0.72137165 -0.27126655 1.0318589
C -0.56159884 -1.7781051 0.895916
C 0.5737688 -0.86549324 0.65554625
O 1.2469043 -1.4403284 -1.1465253
H 1.6887777 1.4595455 0.07275105
H 1.1760021 -0.36920312 -1.133448
H 1.3569516 1.4710224 -1.6639097
H -0.83483297 2.1736903 -1.327596
H -0.45102972 2.4245415 0.36900535
H -1.5660166 -0.105223015 -0.92450845
H -2.3761506 0.90941334 0.28123677
H -0.76324046 0.1719219 2.028957
H -1.0503982 -2.2274446 0.036304384
H -0.52325386 -2.4163892 1.777428
H 1.4863883 -0.83570755 1.2347921
H 2.1858566 -1.6549731 -1.0145856
