19

C -2.0662534 0.29462796 -0.8350637
C -1.0508034 0.7105947 0.116251536
O -1.5226843 1.04862 1.4008496
C -0.14286926 -0.62192005 0.2808618
C 0.06633228 -1.1133852 -1.1239258
C 1.1601793 -0.53208363 0.8307639
C 2.1484165 0.5361343 0.48177323
H -1.1441002 -0.7640241 -1.4536426
H -2.246185 0.8830688 -1.727158
H -2.9129608 -0.2531305 -0.42105287
H -0.3877571 1.4857774 -0.2980844
H -0.76393074 0.971969 2.0034077
H -0.80132335 -1.3109082 0.8210149
H 0.7042345 -0.48976552 -1.757345
H 0.2839059 -2.1747594 -1.2356619
H 1.4310821 -1.170206 1.6715002
H 1.9070646 1.065301 -0.44508174
H 3.1696773 0.14815882 0.4012092
H 2.1679754 1.2859305 1.2893838
