15

C 1.3268201 0.98320144 -1.2662401
C -0.048357222 0.8158236 -1.0724734
N -0.42791048 -0.19624431 0.5535386
C -1.6813715 -0.89588845 0.6900698
C 0.589993 -0.56561434 1.2533119
O 1.7704335 -0.06533602 1.1039786
H 1.828161 0.33946845 -1.9856786
H 1.7396405 0.43887508 0.10350734
H 1.7358049 1.9856557 -1.1558511
H -0.60602015 0.09567355 -1.6702265
H -0.64842004 1.6630174 -0.748648
H -1.8723631 -1.52739 -0.18738696
H -2.5077252 -0.18218224 0.7759008
H -1.6886207 -1.5413783 1.5803679
H 0.48993492 -1.3476815 2.0258298
