15

C 0.5822306 1.4463108 0.8828096
C -0.1138363 0.25467843 0.9708741
C -1.5943294 0.17268075 0.6996897
C 0.6553515 -0.71535844 -0.85765153
O 1.4105289 0.2294298 -1.2765435
N 0.64564174 -1.7987263 -1.6316068
H 0.06023881 2.3453822 0.5563556
H 1.2534195 0.9694961 -0.49944156
H 1.4810678 1.5948639 1.4777818
H 0.27846217 -0.5288724 1.6158664
H -1.905382 -0.8361791 0.413704
H -2.149702 0.46036753 1.6018535
H -1.8834074 0.8631862 -0.09951673
H 0.07934974 -2.5902054 -1.3755028
H 1.2003666 -1.8670539 -2.4786716
