15

C 1.3787858 -0.78338903 1.5385886
C 0.35156313 -0.8338568 0.44405848
C -0.8007472 -0.028386505 0.5295023
O -1.1067212 0.8689747 1.2997537
N -1.3890678 -0.017240237 -0.8164387
C -1.2084033 1.1122311 -1.4770617
H 1.1818944 -1.53947 2.3106284
H 2.3894258 -0.9565805 1.1533763
H 1.3511933 0.19698688 2.0229363
H 0.84781665 0.40009013 -0.7248132
H 0.31573597 -1.7255282 -0.18061413
H -1.2948546 -0.87093383 -1.3546441
H -1.3329723 1.1306607 -2.554429
H -1.2790201 2.0307553 -0.907044
H 0.59537137 1.0156863 -1.283799
