19

C -2.8319674 -1.3873602 -0.8803456
C -2.0446277 -0.29561877 -0.18234335
O -0.6864305 -0.6685765 -0.17091708
C 0.10896767 0.20294607 0.5893229
C 1.5200144 -0.31152162 0.7031248
C 2.4447954 0.7911574 1.0593917
C 2.5258055 0.72721213 -0.45695674
H -3.89647 -1.1339657 -0.92050445
H -2.466827 -1.5255518 -1.902468
H -2.7157335 -2.3339856 -0.3443471
H -2.4097717 -0.16018857 0.85062665
H -2.1742458 0.6721833 -0.6982259
H 0.005848145 1.2427193 0.2069006
H -0.2394136 0.2294217 1.6403989
H 1.9486815 -0.2984815 -0.6693905
H 2.0234861 1.7335284 1.4233834
H 3.3607185 0.5229819 1.5854145
H 2.0214431 1.5356447 -0.9841173
H 3.5057263 0.45745572 -0.8489476
