19

C 1.2663994 -2.028081 -0.030801727
C 0.28049186 -0.7262939 1.5038843
C -0.83428913 -0.19659671 0.71050984
C -1.1543562 1.2772989 0.97985053
C -0.7828859 0.8630734 -0.3908695
C 0.5139535 1.3083249 -1.021522
O -1.870825 0.85069233 -1.2756819
H 1.8606787 -2.9158554 0.20536527
H 1.905784 -1.2295346 -0.3995805
H 0.46700555 -2.2596798 -0.73540825
H 1.1410761 -0.041447513 1.4903913
H 0.7439615 -1.8722237 1.0829508
H -1.7252188 -0.82195944 0.6459698
H -0.4350871 1.8452973 1.5646561
H -2.1957161 1.5209676 1.1633098
H 0.39793372 2.3164065 -1.4329808
H 0.7990715 0.63651687 -1.841548
H 1.3337377 1.3234277 -0.29695192
H -1.7117151 0.14966688 -1.9215436
