15

C 1.8471901 0.38717464 -0.35933384
C 0.24382792 -0.48468852 0.80937374
C -0.90197915 -0.3582517 0.005760066
N -0.8290324 -0.8461154 -1.2358159
O 0.31892374 -1.3754604 -1.497036
C -2.0929072 0.4914919 0.35829028
H 2.601165 0.18898292 -1.1363596
H 1.3786896 1.3505056 -0.5644244
H 2.3867056 0.4164895 0.58694255
H 0.7570057 -1.4406765 0.8406109
H 0.34252295 0.13523024 1.6972122
H 1.1588733 -0.59276587 -0.8611295
H -2.425423 1.0709554 -0.5068866
H -2.9340527 -0.12658897 0.69125926
H -1.8515099 1.1837169 1.1715367
