15

C -0.6075895 -1.5246073 0.8373105
C 0.5407697 -0.57902455 0.7633853
C -0.9751866 1.2322557 -0.16833968
C 0.3237282 1.4946798 -0.61864144
O 1.0700561 2.4506483 -0.4505961
N 0.9496792 0.2783707 -1.1970407
H -0.29611757 -2.3901746 1.4433727
H -0.868586 -1.9183534 -0.15061866
H -1.4907341 -1.0545578 1.2704059
H 0.6134263 0.20543228 1.5043832
H 1.4918736 -1.0473481 0.53619486
H -1.5668219 0.4595285 -0.6494482
H -1.5141981 2.0332055 0.32725888
H 1.9017524 0.4931884 -1.4816855
H 0.4279481 -0.13324322 -1.965941
