20

C -0.5002864 2.0520859 -0.9367939
C -0.004238971 0.88103974 -0.15961197
N -0.570269 0.08349646 0.7576
C -0.5186746 0.01844143 2.0893297
C 0.09551037 -0.59201735 -0.36063114
C 1.4269439 -1.2788507 -0.11027886
C -0.84071654 -1.3501121 -1.2838752
H -0.80531114 2.8596892 -0.26383385
H 0.29691613 2.435708 -1.5800339
H -1.354398 1.7939595 -1.5792284
H 1.1489967 1.2717081 1.0905616
H -0.5050413 -0.97059715 2.5394144
H 1.0618001 0.98047304 1.901957
H -1.0119718 0.81546277 2.63841
H 2.0708976 -1.175268 -0.9909159
H 1.9453772 -0.8380984 0.7446857
H 1.2869152 -2.350855 0.07680677
H -1.7908951 -0.81993556 -1.4026278
H -1.0494975 -2.3552566 -0.8977127
H -0.3820567 -1.4610729 -2.2732215
