18

C 0.9128413 -1.5182092 0.2226026
C -0.3251325 2.4212239 0.5385742
C -0.43857333 -1.0319672 -0.19743513
N 0.5631241 -0.061220523 0.1423485
C 0.4709327 0.61101604 1.4174868
C -0.86283493 -1.0924718 -1.6432588
O 0.5060834 2.5549684 -0.5067022
H 0.52146024 1.72181 -1.0396539
H -1.5942458 -0.31331936 -1.8539718
H -1.3194671 -2.0694232 -1.8576684
H -0.0021787235 -0.9672918 -2.2871861
H -1.2347249 -1.1756983 0.54378194
H 0.20435038 2.0148153 1.5163128
H -1.2086868 1.8188711 0.3012494
H 1.6036559 -1.8322182 -0.513657
H 0.9979467 -1.9289575 1.2176957
H -0.24747449 0.1552856 2.1260893
H 1.4529241 0.6927869 1.873392
