18

C -1.4765815 -0.6399846 0.8240072
C -0.9663835 0.66540533 0.42627177
C 0.43308374 -1.1728386 -0.6298928
N -0.19912575 -0.55887765 0.35975024
C 1.4735756 -0.39685425 -1.3608018
C -0.49251932 1.7380849 1.374205
O 2.7475386 -0.414396 -0.73024935
H -1.3413432 1.016571 -0.52715313
H 1.1359222 0.6413452 -1.5076874
H -1.29534 2.4286184 1.633141
H -1.3437449 -1.4076431 -1.3325319
H -1.8987076 -1.2569501 -0.70950675
H -1.851357 -1.095929 1.7031991
H -0.08975969 1.3125376 2.2911756
H 2.6261377 -0.13250121 0.1772233
H 1.6372005 -0.8172723 -2.3632512
H 0.30695745 2.3375893 0.89552265
H 0.59444624 -2.246905 -0.52342176
