16

C 2.082323 0.8906322 0.25839046
C -1.2061192 -0.19779603 -1.4106718
C -2.333127 -1.1759162 0.8576234
C 1.2898564 1.618076 -0.76057625
N 0.6483286 0.7509945 0.18225233
C 0.16502307 -0.51945996 -0.3156777
C -1.6628457 -0.68887687 -0.3536899
H 0.16929013 -1.2469358 0.47668588
H 1.3452613 1.2674526 -1.7886238
H -2.084299 -0.54737365 1.720263
H 2.4619732 1.4066427 1.1416856
H 0.7875823 -0.94038475 -1.1029874
H -3.410515 -1.1353674 0.71253353
H 1.0978287 2.6775324 -0.650337
H -2.0560434 -2.206993 1.1056445
H 2.7054822 0.047773384 -0.07251487
