17

O 0.8349423 2.1306846 0.26732183
C 0.3259409 -0.25772202 0.2398919
C 0.24448474 1.3168107 -1.5873333
C -0.49732205 -1.3336521 0.9357177
C -0.25016865 0.14964332 -1.0768178
O -0.48494723 -2.460837 0.101911694
C 0.35920885 1.0770581 1.0493996
H -1.5079019 -0.9476109 1.0740715
H 0.6203895 0.16275096 -2.119096
H -1.1079887 -0.37330198 -1.4834498
H -1.0074276 -3.1569688 0.508767
H -0.07193854 -1.5107322 1.9323493
H -0.656153 1.2894728 1.4043102
H -0.24283281 1.8805102 -2.380005
H 1.3505105 -0.6336906 0.13080506
H 0.9857812 0.90118825 1.9393877
H 1.1054229 1.766396 -0.9372312
