17

C -0.07988386 -1.4775869 -1.4728144
C -0.48916602 -0.09789544 -1.9300808
C 0.12071943 0.27194506 0.32424098
C -1.3316468 0.3726818 -0.052303076
C 0.6217773 -0.07400034 1.6871023
C 0.68124056 -0.29302683 -0.9593813
C 0.8118925 1.3087381 1.1113232
H -0.6326327 -2.0752943 -0.7650582
H -0.118195556 -0.1797253 2.4878137
H -1.7923887 1.350822 0.10160737
H 1.701602 -0.090997286 -1.2695187
H 0.41185522 -2.0431378 -2.2374642
H 1.8325663 1.6054261 0.81076545
H -1.4257301 0.4620021 -1.3877866
H -1.998117 -0.4314275 0.2477176
H 1.4682658 -0.74002737 1.7704614
H 0.2178419 2.1315038 1.5333754
