18

C 1.4700892 0.36630118 -0.5803735
C 0.50670403 -1.2207059 1.5251899
N 0.3883006 -0.28789154 -1.2299103
C -0.78133225 1.6215979 0.093786225
C 0.21674816 1.1209674 -0.938609
C -0.23961915 -1.3887486 -0.8026802
O -2.096778 1.5667741 -0.40143043
H -0.5547856 2.6846282 0.2803197
H 0.14103109 1.6908494 -1.8763036
H -2.313405 0.6473306 -0.5915467
H 0.34354496 -2.3178117 -0.84706914
H -0.5656757 -1.2512884 1.752937
H -1.3298713 -1.4234744 -0.835186
H -0.6668825 1.0569168 1.0226692
H 1.1504441 -0.43361834 0.61390823
H 0.89648294 -2.2470305 1.5118324
H 1.0098324 -0.6863724 2.3692908
H 2.4251719 0.50157595 -1.0668244
