16

C -0.031552773 -0.3178518 0.39640015
C -0.94987386 0.8544462 0.68592644
N -1.1377361 1.0326182 -0.9232099
C 1.2341624 -0.6999708 1.0805736
C 0.049739026 -1.6210184 1.1203641
C 0.14064606 1.2041423 -1.5908184
C -0.25670964 -0.12585056 -1.0921512
H 0.08328398 -2.5219038 0.5198983
H -0.5247026 -1.6922969 2.0400426
H 0.017535903 1.3831803 -2.6675138
H 2.0858562 -0.99239117 0.45898086
H 1.510395 -0.16195859 1.9720511
H -2.0287893 1.0424474 -0.2692941
H 0.88620055 1.773492 -1.0668429
H -0.5387418 -0.924883 -1.7825006
H -0.53971297 1.7677984 1.118094
