17

C 1.0491321 -0.5803204 -0.015525872
C -1.0736735 -0.98200047 -0.26378864
C -0.65800154 1.5353225 0.4513288
C 2.0170262 0.42820057 -0.20955217
C 0.13594891 -1.1532414 -1.1357312
C -0.28653088 0.12439605 0.77051425
C -2.1635585 -1.1697658 0.23236321
H -1.6665972 1.7540221 0.80755913
H -0.34505448 -0.12590605 1.8276914
H -0.61577225 1.7213047 -0.6179287
H 1.3775854 -1.3727323 0.668563
H 1.8835388 1.184835 -0.98030585
H 0.03794028 2.2180252 0.94206125
H 0.13051529 -0.47417507 -1.9910157
H 0.37975517 -2.168969 -1.4647782
H -3.1296284 -1.4181588 0.6112928
H 2.927374 0.4791633 0.36725247
