17

O -0.91370684 0.92244464 -2.5646849
C 0.7848359 -0.009810134 1.6039275
C -0.787928 0.18163013 -0.30996487
C -0.2601052 0.9765352 -1.3644265
C -0.5499707 0.5745434 1.1242498
O 0.74269587 -1.3953738 1.3585633
C 0.4442897 -1.6311772 -0.014257984
H 0.23394604 -0.28477627 -0.92782843
H -0.54250145 1.660616 1.2064955
H 0.4334016 1.7700472 -1.126295
H 1.3861545 -1.7832214 -0.59738934
H -0.19420291 -2.524236 -0.049950607
H -1.3565615 0.16868038 1.7656758
H 0.93920463 0.12023887 2.6735604
H -1.6586177 -0.39891344 -0.5854608
H -0.32703242 1.18979 -3.2682688
H 1.6260985 0.46298268 1.0760548
