17

C -1.2615402 1.1300159 -0.58426696
C -0.78478146 -1.3818492 -0.12906136
C -0.37924886 -0.50764215 1.0126134
C -1.6376523 -0.14893536 -0.09779753
C 0.70915234 -0.0068105687 0.21851794
C 0.5682276 -1.0825225 -0.78733915
C 1.7974405 0.9611309 0.50177324
H -0.61746997 -0.482898 2.0434737
H 1.4767185 1.7395097 1.1968346
H -0.64371353 1.7921121 -0.013642076
H 1.2657261 -1.917147 -0.6186337
H 0.56703955 -0.82115257 -1.848744
H 2.6737504 0.4437877 0.9438413
H -2.6845617 -0.41421366 -0.036393646
H -1.9145775 1.6151032 -1.3029114
H 2.1331792 1.4261183 -0.41352695
H -1.2676884 -2.3446064 -0.08473773
