16

C 0.13448922 -0.12477175 -0.40403602
C 1.6177505 -0.33903256 -0.6705997
N -0.38887283 0.7451345 1.6391218
C -0.31031528 1.1642609 0.251476
C -1.4639618 0.1257577 1.9426712
C 0.6870284 -0.2415466 -1.8199301
C -0.77956486 -1.2071555 0.05095744
H 0.42016298 1.960671 0.107877865
H 0.44783506 -1.1274191 -2.388325
H -2.391286 0.17452084 1.3919874
H 2.2533016 0.49814004 -0.44570234
H 0.6719501 0.66368914 -2.395221
H -0.18964134 -2.0664957 0.40744352
H -1.4762397 -0.41906482 2.886374
H -1.2960916 1.4872075 -0.15426658
H 2.0634553 -1.2938951 -0.39982805
