18

C 0.8388713 -1.0023031 2.213999
O -0.83095115 1.2384179 -1.1126212
C 0.2617402 -0.7818075 -0.13463752
C 0.8334809 1.017302 0.6951373
N 0.8968458 -0.4085573 1.0069543
C 0.35172445 0.61824113 -0.7223928
C -1.3564878 0.6180309 -2.2764769
H 1.034618 -2.054956 2.2481794
H 0.026111577 1.5273874 1.2393214
H 1.1293876 0.7858838 -1.5092914
H -1.5826633 -0.43968335 -2.080902
H 1.1985365 -0.39978874 3.064657
H 0.31885907 -1.7538178 -0.6078463
H -0.6340668 0.6925079 -3.116041
H 1.7750572 1.545535 0.7982774
H -2.2774172 1.1495223 -2.5192783
H -0.86137533 -1.2292509 1.831357
H -1.1222712 -1.1226635 0.9816043
