17

C 0.7221597 -0.5495087 -1.1310132
C 1.0900785 1.4976754 0.5879379
N 0.5932901 -0.15212151 0.2639801
C -1.0492139 0.8540618 1.8965833
C -0.28365535 0.95647246 0.59858435
C -0.22099471 -1.7206836 -1.4188735
H -0.11301586 -2.04662 -2.4522474
H -1.8399278 0.102104984 1.8308141
H -1.4765489 1.8280365 2.1576452
H 1.509634 0.16780235 0.8138636
H 0.5064174 0.2865384 -1.8126452
H 1.332687 1.8641515 -0.42611188
H 1.7548765 -0.84834385 -1.318657
H -1.2552308 -1.4357569 -1.2629929
H -0.35616967 0.5646889 2.6960998
H -0.92520803 1.2014465 -0.2637883
H 0.010821842 -2.5699446 -0.7591786
