16

C -1.525154 -0.59292793 -0.31150717
C 1.0720518 0.20287026 -0.85447335
N 1.7334561 0.5354064 0.47485313
C 1.8993269 -0.80429816 -0.16029643
C -1.6784906 0.84066904 -0.5620947
C -0.32183015 0.21990767 -0.19981205
C 0.40562266 0.5865024 0.98092175
H 1.3919513 -1.6384252 0.28058597
H 2.905876 -1.0073757 -0.508167
H -1.8425344 1.2643186 -1.563442
H 0.16261987 1.2786855 1.7697072
H -2.0569606 1.4962693 0.22145428
H -0.6728879 -0.83328784 1.9621233
H 1.3885651 0.7237741 -1.7469954
H -1.6217391 -1.2754874 -1.1809183
H -1.2398725 -0.99660087 1.3980607
