16

C -1.7403965 -0.14092873 0.36506444
C -0.589787 -0.4907444 -0.3659236
C -1.4037937 0.9572461 1.1910027
C -0.4101746 -1.6395811 -1.302633
C 0.4543712 0.38257012 0.12197886
C 1.8347126 0.2998654 0.017562645
N -0.10807875 1.2427876 1.0471135
H -2.0791237 1.6125242 1.7216104
H 0.2577537 -1.3642471 -2.1308913
H -0.03093373 -2.5254674 -0.8242697
H 2.3005888 0.054151025 -0.9376006
H -1.385568 -1.8969778 -1.7670286
H -2.7287285 -0.5444474 0.21921183
H 1.9658285 1.9227939 0.63964623
H 1.2133712 2.0129955 1.1106763
H 2.4499588 0.11746012 0.89447975
