17

C 0.20762534 -0.25964814 1.4647282
C 0.76543856 0.20478715 -0.8515282
C 0.98049384 -1.4324477 1.0806345
N 1.0285084 -0.10882509 0.45661318
C -1.7710198 -0.45048386 0.057715874
C 0.5660755 1.6550183 -1.1465211
H -0.5518089 -0.2850791 -0.62077814
H -1.9559379 -1.3337026 0.6616577
H 1.8923217 -1.7427526 1.5854325
H -0.18006492 2.1037188 -0.47264948
H -2.2940586 -0.58212006 -0.9025375
H 1.4925683 2.234457 -1.0138756
H 0.45399764 -2.2330627 0.5244308
H 1.4332252 -0.31742784 -1.5372324
H -0.09452528 0.3171408 2.3369737
H 0.22524056 1.801026 -2.16464
H -2.1980789 0.42940173 0.541575
