17

C -0.025947534 0.12917723 1.7881366
N 0.14505303 0.6420657 0.5228138
C 0.9292878 -1.6816885 -0.05377659
C 0.03853005 1.9957036 0.058161393
C 0.014334899 -0.5048395 -0.19908318
C -0.90277445 -0.4579735 -1.3936164
H 0.63995004 0.4574584 2.5828366
H -0.44782066 0.0020923396 -2.2723372
H -1.8199738 0.0953189 -1.1680461
H 0.44189408 2.6509323 0.8439584
H 0.40436122 -2.6091585 0.22606705
H 1.7061297 -1.4946634 0.6698337
H 0.6252172 2.1299484 -0.859141
H -1.1819037 -1.4881576 -1.6693789
H -0.9736635 -0.2563998 2.047584
H -0.9993218 2.274814 -0.10571185
H 1.4066478 -1.8846291 -1.0182999
