17

C 0.35685968 1.2538043 -1.5774244
N 0.119166486 -0.13691026 0.89444834
C -0.677557 1.0312849 0.6051476
C 0.91877276 -0.97499007 -0.4521801
C -0.54227066 0.41964224 -0.7032711
C -0.7330698 -1.1726768 1.5082407
H 0.5984149 -1.3985828 -1.4078565
H 1.1113731 -1.8064835 0.24040557
H 0.71328384 0.715672 -2.469615
H 1.232432 1.7130098 -1.0690277
H -0.15416574 -2.0777755 1.6260908
H -1.6360381 -1.3851446 0.9202103
H -1.6857048 0.98886645 1.0613192
H -1.0170913 -0.80194765 2.5107925
H 1.8421527 -0.3964378 -0.5810001
H -0.29037178 2.0649629 -1.9320141
H -0.15618642 1.9637057 0.8257334
