17

C 0.31411245 -0.7344134 -1.5810511
C 0.4612447 0.14811672 -0.35031682
C -1.5181763 0.84432924 1.5321
N -0.3052003 0.12988949 1.5556573
C 1.7970088 -0.16054888 0.3080783
C -1.2835978 0.023933379 0.29520738
H 0.26178798 -1.7934234 -1.2963543
H 0.44258368 1.2240435 -0.61113214
H -2.3764033 0.46415675 2.0974452
H -1.5042888 0.70106715 -0.5312129
H 1.9769803 0.44958657 1.1857446
H 1.1790446 -0.60939586 -2.2557514
H -0.5759342 -0.4851444 -2.1661978
H 2.6029189 -0.002930556 -0.4312787
H -1.5166626 1.9446929 1.4132214
H 1.823209 -1.2062192 0.61796874
H -1.778627 -0.93774 0.21787235
