17

C 0.61187285 0.01810529 -1.2380123
C 0.7685737 -1.2847528 1.1280704
C 1.4880395 -0.15224625 1.0881597
C -1.9152915 -0.6614314 -0.41690862
C -0.6646109 0.11916146 -0.41679153
C 1.2911757 0.8157738 -0.05773782
C -0.07547235 1.1865515 0.4133793
H 2.0348387 1.5766344 -0.25352243
H 0.7844178 -1.8677253 2.0419083
H -1.694356 -1.6840179 -0.062051028
H -2.659676 -0.22518618 0.27755043
H -0.50072736 1.6844295 1.2734133
H -2.3604014 -0.71254545 -1.4062326
H 2.1943538 0.23202538 1.8659132
H 0.56818783 0.5640134 -2.1747806
H -0.86287475 1.3868617 -0.6862989
H 0.9919506 -0.9956512 -1.376059
