17

C -0.21549962 0.86813056 1.1447089
C -1.2622186 1.9329926 0.8190437
C 0.058433812 0.19175225 -0.35639963
O -1.0176487 -0.3279249 -0.8893637
C 0.79202676 -2.2068148 -1.6114552
C 0.99271137 -0.7480524 0.1849643
O 0.7831471 -3.3850987 -1.3382068
H 2.017558 -0.47249 0.40291125
H 0.5666333 -1.5817664 0.74567693
H 0.5590066 0.9898634 -0.92959446
H -0.21004061 -1.498601 -1.4644558
H 0.65194356 1.2875336 1.5868675
H -0.86306906 2.7128525 0.16990255
H 1.5355618 -1.7582595 -2.3348346
H -1.5948738 2.4161248 1.75132
H -2.1363795 1.4810015 0.32963434
H -0.65729266 0.0987566 1.7892809
