17

C -0.46254995 -0.9985459 1.2000586
C 0.44196653 0.58974993 -1.5941119
N 0.58341336 -0.9640596 0.4179897
C 1.0122775 -0.6227267 -0.8891921
C 1.8948761 -0.44356588 0.3219822
C -1.976513 0.5850938 0.80621356
H 2.0352895 0.56807643 0.71231866
H -0.5190016 0.3718777 -2.0739648
H -0.29592407 -0.6866934 2.2460313
H -2.6435113 0.6551105 1.6567664
H 0.27017364 1.415391 -0.9070024
H 1.2018462 -1.4849465 -1.5313153
H 2.7185092 -1.1245027 0.48700875
H -1.2662257 1.4165555 0.8144975
H -2.5100348 0.5217565 -0.12790956
H -1.6065128 -0.7394179 0.83835167
H 1.1219219 0.9408472 -2.3777218
