17

C 0.54687995 -2.1358526 0.06340575
C -0.18340208 -1.1168132 0.92919534
N 0.26877007 0.23478083 0.60665554
C -0.9084513 1.4946954 0.87924665
C -0.4383914 0.9820592 -0.43208954
C 0.42849433 1.8292766 -1.3321767
H 0.24347977 -3.1539106 0.32936436
H 0.31657684 -1.9777832 -0.9960149
H 1.6295713 -2.047974 0.19370246
H -1.2718863 -1.2049083 0.7918914
H 0.026738055 -1.2938871 1.9897137
H -1.7917786 0.91818726 1.1983804
H 0.31444514 1.0092973 1.4169686
H -1.111785 0.3117382 -0.97321147
H -0.19490935 2.50619 -1.9260658
H 1.020213 1.2080199 -2.0137637
H 1.1054355 2.4368842 -0.72520226
