16

C -2.2305396 -0.38671023 -0.6845442
C -0.1894078 -1.067357 -0.7857748
N -1.6660384 0.763285 -0.4807878
C -0.8097401 0.71752733 0.69796616
C 0.37557012 -0.032807093 0.07875486
C 1.6780324 -0.42981064 0.75256455
C 1.6556643 0.7148327 -0.20742232
H -2.4668076 -1.1005465 0.1089412
H -2.7389 -0.55130625 -1.636675
H 0.42668068 -1.2136214 -1.6947384
H -1.2537469 0.16142741 1.5388126
H -0.5394654 1.722293 1.0335699
H 2.1532369 -1.3602138 0.44920984
H 1.746092 -0.22776183 1.8181666
H 1.7447919 1.7217398 0.19417694
H 2.114577 0.5690292 -1.1822201
