17

C 1.193372 -0.86094475 0.83223104
N -0.22126395 -0.57673687 0.70347065
C -0.96298826 -1.1337855 -0.40443063
C -0.84629554 0.3062824 -0.6432953
C -0.7453254 1.0177877 1.1255002
C 0.20655389 0.7652659 -1.606576
H 1.7860215 -0.6843744 -0.07484851
H 1.5938883 -0.23017606 1.6358478
H 1.3169895 -1.9078865 1.1279172
H -1.9211881 -1.5934879 -0.14918306
H -0.3281103 -1.7790773 -1.0172938
H -0.559175 2.007113 0.679175
H -0.09222823 0.9970442 2.0270183
H -1.7811823 0.952245 1.447993
H -0.29425365 0.8623446 -2.5779166
H 0.58568555 1.7615222 -1.3417846
H 1.0695001 0.09686436 -1.7638245
