17

C -1.0794859 -0.7591753 1.3877181
C -0.14458935 0.36383167 1.7589958
C -0.25388926 -0.09231123 0.33392042
C -0.8769127 0.7334894 -0.7752713
C 0.40889174 -0.44183546 -1.8806632
C 1.6345117 0.1545897 -1.2521081
C 0.8036572 -0.79960907 -0.45014638
H -2.149046 -0.56255424 1.407462
H -0.8054973 -1.7701802 1.6789818
H -0.58398116 1.3229519 2.0244164
H 0.76649165 0.119252674 2.299339
H -1.9624127 0.63731986 -0.8800213
H -0.55426204 1.7730803 -0.8609382
H -0.62801224 0.16317226 -1.973922
H 1.7153938 1.1951752 -0.9439982
H 2.5480385 -0.24426475 -1.6909695
H 1.161104 -1.7929326 -0.18279578
