17

C 0.093261875 0.94423985 1.7304742
C 0.4182231 0.92217165 0.27700725
C -1.6234975 0.071514666 -0.81678087
N 1.2048585 0.008219726 -0.26179546
C 1.1524879 -1.4274256 -0.12168328
C 0.9379241 -0.7209703 -1.42854
H 0.25976664 -0.03525728 2.1882122
H 0.6915237 1.6910439 2.26704
H -0.9617474 1.2158546 1.8539815
H 0.32040733 1.8430395 -0.2927772
H -1.9491531 -0.4048873 0.11538632
H -2.2129874 -0.37842897 -1.62747
H -1.9050785 1.1291361 -0.7828741
H 0.25995228 -1.8396924 0.35714504
H 2.0952516 -1.8922819 0.1619924
H 1.6471883 -0.76113796 -2.2508984
H -0.42838132 -0.3651386 -1.3684198
