16

C 1.7934 -0.00415235 -0.94592094
C 0.9827254 0.4320299 0.2359231
N 0.8704232 1.1201591 -1.0498608
C -0.6667734 0.7391001 -1.082142
C -0.45920426 -0.013433531 0.22922398
C -1.0067704 -1.3215814 0.7146071
C -1.3472838 -0.038109504 1.4322002
H 1.5071174 -0.8893927 -1.5089338
H 2.8477418 0.26051748 -0.94728506
H 1.4882641 0.9080357 1.0754186
H -0.8619522 0.13403226 -1.9764116
H 0.2219291 1.9872591 -1.2230695
H -0.34006882 -2.0269985 1.2068739
H -1.7835974 -1.7854283 0.11123893
H -2.347778 0.37053692 1.3183166
H -0.898173 0.12742554 2.4098213
