17

C 1.2824122 -1.0892705 -0.32913297
C 0.039767876 -0.6751863 0.44504318
C 0.99908525 1.4986354 1.065376
C -0.23429745 0.86119986 0.7762882
C -1.0045966 1.0677992 -0.54862046
C -1.224168 -0.4430999 -0.64214027
C -1.933608 -1.3471338 -1.1382217
H 2.1535559 -1.2312922 0.3157393
H 1.0657612 -2.043771 -0.8208832
H 1.541323 -0.36003363 -1.1051986
H -0.1620549 -1.3614244 1.2761651
H 1.2869325 1.7634207 2.077691
H 1.7286472 1.6709884 0.27872217
H -0.9274208 0.87506557 1.6232291
H -0.348219 1.4072415 -1.3595268
H -1.8979108 1.7008895 -0.52967
H -2.3652096 -2.2940285 -1.3848604
