18

C -0.5202021 1.8206367 -0.9738234
C -0.45700735 1.008438 0.2943386
C -1.5913744 0.16401714 0.7500566
N -0.40458724 -0.43719724 0.15677218
C 0.47867638 -1.1694435 1.0183765
C 1.9791758 -1.4280139 -0.5431495
O 1.1688648 -1.7361653 -1.5600355
H 0.4721006 1.9070401 -1.4314517
H -0.8911798 2.8314016 -0.77330357
H -1.1921096 1.3460432 -1.6963791
H 0.16547936 1.4266298 1.0888966
H -2.5001419 0.10412693 0.15418814
H -1.7334315 0.043810938 1.8234798
H 0.9099953 -0.58745205 1.8438336
H -0.024476452 -2.0691898 1.3874665
H 2.120015 -0.33694747 -0.42372853
H 1.5503128 -1.8332778 0.5416542
H 0.46989027 -1.0544574 -1.6571914
