17

C -0.4192674 -1.4115365 1.0842427
C -0.5186997 -0.057625413 0.4004703
C -1.6066186 -0.15273724 -0.6873666
N 1.4066688 0.12434619 0.65809363
C 0.8091664 0.66790074 -0.7528168
C 1.9965036 1.1962563 -0.005528975
H 0.12722558 -2.1087635 0.44179386
H 0.11051435 -1.3442279 2.0332763
H -1.4266803 -1.815927 1.2476214
H -0.76429695 0.7474212 1.0935321
H -1.3721488 -0.925606 -1.4274452
H -1.7762716 0.79255706 -1.2107141
H -2.5475671 -0.43540707 -0.20029059
H 0.10717352 1.4854777 -0.91806453
H 0.9970016 0.038631998 -1.6188246
H 2.9344943 0.97444147 -0.5257341
H 1.9428024 2.2247977 0.38775533
