17

C 2.0363057 1.2763133 0.52362096
C 0.7195897 0.67351246 0.99892735
C 0.16866295 -0.27971017 -0.22820705
O 0.48123527 -1.5451804 -0.07419419
C -1.2109576 0.026724 0.10579824
C -1.8853498 -1.5925518 -1.2890346
O -1.7322066 -1.1193066 -2.3948808
H 2.499587 1.84874 1.3347313
H 2.7240424 0.48984477 0.20099102
H 1.8710219 1.9577364 -0.3173918
H 0.84879875 -0.027432546 1.8249128
H 0.057832193 1.4824911 1.3263055
H 0.48470455 0.20900829 -1.1674166
H -0.9095151 -1.8439525 -0.6172932
H -1.6858908 0.9528426 -0.21953122
H -1.6170336 -0.43713194 1.0052444
H -2.8508275 -2.071947 -1.0125823
