18

C -2.4657903 -0.30402184 0.03222555
C -0.6957086 1.2368622 0.79964375
N 0.23863767 0.7196782 0.017937766
C 0.022573454 -0.07040851 -1.1150261
C 0.8048559 -0.61376315 0.032676913
C 2.3192549 -0.6811661 0.087172806
O 2.934541 0.27542773 -0.74040294
H -3.1275313 0.5497654 -0.13772619
H -2.517983 -0.5908435 1.0854677
H -2.8722994 -1.1477584 -0.5429429
H -1.2691404 2.0743854 0.41511753
H -0.59252685 1.1268938 1.8762517
H -1.3302721 -0.28284475 -0.71705616
H 0.43671668 0.16355208 -2.0906568
H 0.28067937 -1.3390661 0.6662436
H 2.6558418 -0.5838793 1.1331809
H 2.644955 -1.6629698 -0.27117482
H 2.533196 1.1301566 -0.5309324
