16

C 1.4486058 -1.0911312 -0.46716762
C 0.23064005 -0.39662483 -0.34920138
C -0.2364354 0.63554853 0.50864094
C 0.56205666 1.376999 1.5373088
C -1.6154611 0.68254995 0.30502683
C -1.9073181 -0.22834006 -0.73572916
N -0.79919153 -0.86054605 -1.1135712
H 2.3885677 -0.5616622 -0.29284072
H 1.0863822 -1.5947059 -2.0001929
H 1.5152643 -2.1598775 -0.27881938
H 0.0911606 2.3392882 1.7620546
H 1.5826218 1.5744983 1.1893814
H 0.63538635 0.8210218 2.4794672
H -2.3123875 1.3705441 0.7705058
H -2.8331153 -0.32714042 -1.2915955
H 0.16322349 -1.5804216 -2.023268
