17

C 1.3240632 0.7332985 1.3400961
N 0.22397995 0.7198018 0.39670706
C -0.9231066 1.4691255 0.43796527
C -0.19190784 -0.30524603 -0.37276182
C -0.5456125 -0.13070618 -1.8254689
C -0.04762595 -1.7223667 0.115350775
H 1.1035514 0.11901267 2.2235112
H 2.243225 0.3653014 0.8730105
H 1.468416 1.7651495 1.6734337
H -0.89500123 2.5372195 0.22154044
H -1.8275261 1.0323809 0.84499884
H -1.5894967 -0.39300674 -2.0388367
H 0.07744994 -0.79191303 -2.4517403
H -0.39514822 0.9066864 -2.1350873
H -0.9273753 -2.3213527 -0.14798337
H 0.81852686 -2.2105117 -0.35534966
H 0.08358817 -1.772873 1.2006142
