18

C 2.1486926 1.6493491 0.086595625
O 1.0678539 1.2862874 -0.73582226
C 0.77764523 -0.079732746 -0.64582163
C 0.123145185 -0.58831656 0.62960374
N -0.95089614 -1.0897213 -0.049673643
C -2.1833386 -1.2411139 0.4604955
C -0.57466817 -0.42460307 -1.3043604
H 2.330437 2.7148924 -0.0690223
H 3.0595145 1.0880152 -0.1765891
H 1.9201794 1.4761876 1.1482391
H 1.6339811 -0.668505 -1.015854
H 0.5522342 -1.0545747 1.5127585
H -1.0127453 0.4612207 1.3800727
H -1.8820661 0.2442816 1.3148813
H -2.2654223 -1.8171644 1.3777499
H -2.9982123 -1.3375871 -0.25188255
H -1.1779463 0.47024637 -1.4890766
H -0.56838727 -1.0891614 -2.172294
