17

C -1.25177 -1.8603967 -0.57426673
C -0.11781754 0.07573862 -1.6064659
N 0.62753475 0.33667573 -0.54950446
C 0.91337395 -0.5438156 0.49463564
C 0.21475448 0.75006515 0.7750037
C 0.86142004 1.9880106 1.3465542
H -0.9737617 -2.534217 -1.3903222
H -1.5434226 -2.4850287 0.28099674
H -2.145096 -1.3034047 -0.8685102
H 0.2849478 -0.5914372 -2.3621423
H -0.8769687 0.79653037 -1.9000015
H -0.14097932 -1.3950768 0.08622353
H 1.9242301 -0.7881489 0.8095543
H -0.8615586 0.6482358 0.9611242
H 0.8170742 1.9631867 2.4405699
H 0.35523278 2.9000504 1.009049
H 1.9128065 2.0430322 1.0475026
