17

O -0.2586451 2.726513 -1.07361
C -0.39918134 1.3275893 -0.87164116
C 0.8584282 0.7885201 -0.3495027
C 0.99661154 -0.057822075 0.8101003
C 0.83930135 -1.6409491 0.66476244
O -0.30489716 -1.8933262 -0.07877409
C -1.3736502 -1.1259776 0.19245514
H -0.830057 2.9907594 -1.8045926
H -1.1994166 1.0134593 -0.1329101
H -0.7455201 0.8573989 -1.8067628
H 1.757046 1.2213576 -0.7872915
H 1.950444 0.097923085 1.330659
H 0.13247503 0.16322519 1.4679067
H 0.76801765 -2.048317 1.6825145
H 1.6760079 -2.1111093 0.14080477
H -1.7526884 -1.1451259 1.2179933
H -2.114276 -1.1641185 -0.6021114
