17

C 2.029355 -0.4696395 -0.4490557
C 0.73362595 -0.27895963 0.27538535
C 0.06766138 0.8507283 0.8181339
C -1.2405605 0.16386794 0.80213207
C -0.49424237 -1.1687623 0.5391283
C -1.6501158 0.8140652 -0.5628824
C -0.8810941 0.5290787 -1.621428
H 1.7902827 -0.73132473 -1.4798143
H 2.6066332 0.4597171 -0.4569392
H 2.6323285 -1.2645422 0.0029979134
H 0.39783663 1.8792311 0.9303463
H 0.94277847 0.01805181 1.5131867
H -1.9682429 0.26544335 1.606725
H -0.84386146 -1.7281744 -0.32318062
H -0.3844506 -1.8138438 1.4183892
H -2.4816382 1.5175757 -0.44923565
H -1.256296 0.9574873 -2.5638885
