16

C 0.7237766 2.0801194 1.6220963
C -0.30720234 1.052802 1.423759
C -1.1631838 0.12882851 1.4093431
C -0.57604647 0.30628034 -0.21382494
N 0.36548233 -0.7520902 -0.491729
C 0.20001942 -1.4001021 -1.7861841
C -0.19386882 -2.0893042 -0.53251755
H 0.8068587 2.2842243 2.6937735
H 0.4727344 3.0175025 1.1148914
H 1.6960915 1.7235867 1.2674682
H -1.555666 0.18616967 -0.6971486
H -0.1634838 1.2350271 -0.6362992
H 1.1203805 -1.6632212 -2.3023415
H -0.6036913 -1.0473088 -2.4338078
H -1.2575651 -2.1913357 -0.3226453
H 0.43536395 -2.8711772 -0.11483344
