17

O -1.7482802 -0.7284914 1.7568518
C -1.2149628 -1.0711966 0.4921297
C -0.52518713 0.15289746 -0.083341666
C 0.6314799 0.6265995 0.75964725
C 1.426247 1.521338 0.01592281
O 1.6079084 -0.01912162 -1.2297506
C 0.22425546 -0.1748509 -1.447747
H -2.1674662 -1.5133153 2.1286612
H -0.48025844 -1.8904291 0.57822806
H -2.0076618 -1.4068184 -0.19648902
H -1.277928 0.9343971 -0.24778354
H 0.6913952 0.5150496 1.8359904
H 1.4861178 -0.16967508 0.0667374
H 2.4081612 1.8153723 0.38359323
H 1.045059 2.1292605 -0.804401
H 0.017063377 -1.2090895 -1.7549297
H -0.1159427 0.48807302 -2.2533195
