18

C 0.67627007 -2.5840507 -0.39706028
C 0.95568913 -1.0995549 -0.37261152
C 0.33796197 -0.07070535 -1.2521437
N -0.13566801 -0.22188368 0.012459649
C -0.337735 0.5930047 1.0308415
C -1.4091707 1.645282 0.9601081
O -1.5280977 2.2367527 -0.30856872
H 0.77541304 -3.0283046 0.6001599
H 1.3899711 -3.085939 -1.0590785
H -0.3336926 -2.781523 -0.7694439
H 1.9275889 -0.8144316 0.050614975
H -0.22166254 -0.14723267 -2.1761775
H 1.0747521 1.2790526 -0.74927634
H -0.029932877 0.23132436 2.0100844
H 1.1074004 1.6924396 0.033875495
H -2.389511 1.1998476 1.1756498
H -1.210915 2.385528 1.7511145
H -0.64866143 2.5703933 -0.5405481
