16

C 0.8473731 0.7940645 1.7384639
C 0.84723896 -0.093616165 0.57250667
N 0.23595084 -0.55505985 1.8131223
C -1.0332173 -0.4275081 1.056948
C -0.38944718 -0.14320534 -0.33060798
C -0.51601475 0.49550477 -1.5417684
C -0.4744554 -0.9635445 -1.6075408
H 0.2051697 1.674396 1.7802701
H 1.7669551 0.8549581 2.3127382
H 1.8465545 0.26820737 -0.94288933
H -1.6223987 0.43013662 1.3918622
H -1.6079993 -1.3543696 1.0783664
H 1.4336865 0.61534375 -1.5403173
H -0.55041444 1.4221139 -2.0897086
H -1.4006296 -1.5358322 -1.6999295
H 0.4116479 -1.4815894 -1.9915156
