17

C -1.7009717 -0.7067672 0.9684723
C -0.37327033 -0.4759917 0.3210536
C 0.2680126 -1.132129 -0.8912232
C 1.5002861 -0.29756743 -0.5046212
C 1.1178383 1.1408389 -0.55729437
C -0.24161412 1.5526258 -0.466
C 0.8994055 -0.13937998 0.8512443
H -2.4998057 -0.732053 0.22032693
H -1.7245995 -1.6560524 1.5195985
H -1.9313223 0.09309742 1.6823726
H -0.17861126 -0.97550434 -1.8784974
H 0.4830906 -2.1938298 -0.72190994
H 2.530551 -0.56126934 -0.7345747
H 1.9008478 1.8477085 -0.86526775
H -0.5547876 2.308092 -1.2045168
H -0.7719188 1.6957601 0.46511278
H 1.2768693 0.23242146 1.7957243
