16

O 0.27789828 -0.8834991 -2.0186875
C -0.22157322 0.48741975 0.5288757
C 0.8260353 0.9354255 -0.48227486
C -0.12635513 0.37279212 -1.5682914
C -1.1771238 0.21636496 -0.50339997
N 0.7422498 -1.476443 1.1810533
C 0.08656351 -0.37752178 1.8088518
H 0.54604065 -1.3704236 -1.213133
H -2.2177503 -0.1021875 -0.47668037
H 0.7872515 0.19419935 2.4285593
H 1.7454932 0.35678777 -0.37191096
H -1.0993243 1.3164254 0.39037982
H 1.012604 2.0230389 -0.536702
H -0.33547604 0.9916949 -2.4469135
H -0.0073334915 -2.1310742 0.9225261
H -0.8392001 -0.55299985 2.357748
