16

C 0.30802402 0.9014288 -1.5854763
C 0.7944474 0.597957 1.4935033
N -1.6298548 -1.058553 -0.58953524
C 0.53164834 -0.52508277 0.5290161
O -1.6295944 -0.9184656 1.7424941
C -1.190971 -0.89801556 0.6133979
C 0.44412544 -0.38405585 -0.86068994
H 0.36988127 0.33049962 2.4490592
H -2.6082537 -1.3043329 -0.58373326
H 0.33125967 1.5303783 1.1677604
H 0.9869505 -1.4711928 0.8386312
H 1.3087645 1.2751675 -1.8304853
H 0.5696864 -1.280137 -1.4655063
H 1.8553712 0.7946187 1.6003665
H -0.24650636 0.7570985 -2.519598
H -0.1949781 1.6526866 -0.9992047
