16

C -0.6113979 -0.9867114 -1.3273009
C 0.29779065 1.5726216 1.1447054
C 0.002841431 0.115084626 0.8340858
C -1.1511353 -0.099289134 -0.20336092
O 0.71393377 -0.54343456 -1.541639
C 1.2240189 -0.49401155 0.1879722
N 2.1961193 -1.1700872 0.17413962
H -1.4246714 0.8733194 -0.6261617
H -1.2025342 -0.88007605 -2.2462854
H -0.57262456 2.0406277 1.6241945
H -0.63433 -2.0491445 -1.0231539
H 1.6916519 -1.2150714 -1.0518291
H -0.179013 -0.44373128 1.7287606
H 0.52054316 2.1259422 0.22577487
H 1.1568973 1.6657321 1.8206134
H -2.0280902 -0.5117703 0.27948418
