16

C 1.0374581 0.80578583 1.055111
C -0.37631238 0.75531936 0.48540407
O 0.46535006 0.33476952 -1.9050717
C 0.06125072 -1.5915762 -0.5678789
C -0.5939149 -0.33371994 -0.5771174
C -1.3418933 0.48550925 1.5475104
N -2.1362329 0.31820828 2.369394
H 1.1249784 1.643434 1.7473513
H -0.63096553 1.7148639 0.032280058
H -0.4750394 -2.4675279 -0.9274166
H 1.284718 -0.10702943 1.5983297
H 0.723313 -0.8077842 -1.5951927
H 1.7454792 0.92534316 0.23342818
H -1.5806451 -0.2535199 -1.0449605
H -0.03492303 0.37822053 -2.7322254
H 0.7273793 -1.8002963 0.28105423
