16

C -0.37835774 0.4702097 -0.74571544
C 0.9874142 -0.5345092 1.0765575
N 1.4289713 -1.1848451 -0.18478774
C -0.042655766 1.8766114 -0.6132422
C -0.17330097 -0.5831734 0.17586468
O -1.8274809 -0.015902568 0.4987825
C 0.16231029 -1.9068778 -0.28918293
H 0.94509685 -1.1971861 1.9599384
H -0.15902694 -2.1804092 -1.3031864
H -0.0052596005 -2.735739 0.4294424
H 0.24795991 2.1388974 0.4246775
H -0.8504777 2.5272028 -0.9351505
H -0.76812094 0.14985196 -1.7411941
H 0.81774133 2.1031227 -1.2628281
H 1.4435469 0.42746368 1.322888
H -1.8283601 0.64528257 1.1871364
