16

C -0.36779413 -0.38755924 -0.15069477
C 1.5963199 0.91713184 0.7250296
C -0.49597427 -1.3344665 0.9530225
N 0.51792794 1.7842708 0.29566762
C 0.82631856 0.36267027 -0.41285777
C -1.4614033 -0.27713335 -1.1631998
O 1.224699 0.1993028 -1.627496
H 2.6354115 1.1882802 0.486146
H 0.84892595 2.4781442 -0.36113092
H -0.9997012 -0.82841635 1.7762451
H 0.48147875 -1.654492 1.3038253
H -2.4339323 -0.2109342 -0.65735376
H -1.0980438 -2.2043846 0.6780024
H 1.4948639 0.5789815 1.7616122
H -1.2950094 0.5772064 -1.8180008
H -1.474087 -1.1886016 -1.7888167
