16

O 1.7374445 -1.2487845 1.8967218
C -1.713593 0.6794508 -0.7410059
C 0.10690622 -1.0509706 0.01651247
C -0.29414517 0.23726538 -0.6130228
C 0.80547 -0.49063233 1.2152495
N -0.9367126 0.34761298 -1.9229591
C 0.84001625 1.1983273 -0.29961205
H 2.3454566 -1.6196309 1.2399697
H 0.8189678 -1.5641617 -0.65691495
H 0.4677075 2.0490475 0.30661398
H -0.589937 1.1841536 -2.3566427
H 1.4596059 0.4141197 0.7221754
H -2.5150714 -0.015727118 -0.5176201
H -1.9623011 1.7239718 -0.51556385
H -0.7005867 -1.7571819 0.23955865
H 0.13077192 -0.08685991 1.98654
