16

C 1.4414523 -1.2654439 -0.5879121
C -1.132355 0.56712335 -0.4773463
N -0.5536117 -0.04775105 -1.5103924
C 0.22979662 0.8742238 0.18405443
O -2.3182526 0.7752919 -0.19411029
C 0.81240267 0.05330379 -0.97680616
C -1.1754302 0.34456888 2.6571043
H -1.5579373 1.363824 2.6426892
H 2.411699 -1.1117113 -0.08508433
H 1.6138294 -1.8985397 -1.4735066
H 0.40357313 0.45875853 1.1980172
H -0.9357086 -0.6216242 -2.2667015
H 1.4899079 0.64095014 -1.6130637
H 0.46343157 1.9361243 0.16721568
H -1.9890382 -0.24969764 2.2371223
H 0.7962411 -1.8194013 0.098720655
