16

N 1.6009097 -1.5687646 -1.5203568
C -0.24699707 -1.2166078 -0.004660181
C 0.8799579 -0.72291213 -0.9293762
C -0.49602526 -0.3709228 1.2587459
C -0.781501 1.5588182 -0.30865458
C -0.34080756 1.1026899 0.9368946
O 1.04067 0.6001717 -1.1031141
H 0.24112117 -0.6464185 2.016689
H -1.3124162 0.9309041 -0.9933626
H 0.74543023 1.0901488 0.2946979
H -0.2787596 1.8308166 1.7515901
H 2.2791107 -1.0951247 -2.089068
H -1.4804316 -0.5909542 1.659163
H -1.180269 -1.257925 -0.60676557
H -0.65625674 2.5934184 -0.6135679
H -0.013735554 -2.2373378 0.25114506
