16

O 2.0913923 -1.5284532 1.1605641
C 0.91356593 -0.8539229 0.89777327
C 0.23596258 1.3678918 0.85202634
C -0.39919984 0.6018474 -0.28768197
C -1.8504779 0.420873 -0.5503678
N -1.0574471 1.3988545 -1.3044189
C 0.575988 -0.527807 -0.5485177
H 2.8010848 -1.1097033 0.65493673
H 0.10659155 -1.3701142 1.4210593
H 1.0208232 0.23820245 1.3660735
H -0.49399436 1.4393517 1.6844229
H -2.5908015 0.85679156 0.11837718
H -2.175512 -0.48755714 -1.0588096
H -0.83950573 1.0642314 -2.2396736
H 0.18800415 -1.3775721 -1.1202371
H 1.473526 -0.13291405 -1.0455264
