16

C 0.16077068 1.9527175 -0.6047347
C 0.2555272 0.43054366 -0.5838531
C 0.70293677 -0.15690897 0.7704863
C 0.32128942 -1.6623696 0.7604098
O -0.6475314 -1.8483171 -0.2563231
C -1.0773513 -0.20865472 -0.748619
N -2.2789779 -0.2514121 -0.6774684
H 1.1427381 2.3929038 -0.4049102
H -0.5401616 2.3060646 0.15809041
H -0.18533792 2.3122318 -1.5778977
H 0.9184866 0.06871549 -1.3782636
H 1.7739567 -0.0046210787 0.9372613
H 0.16491978 0.3721708 1.5665876
H -0.057828862 -1.985173 1.7366121
H 1.1937253 -2.2789953 0.5144933
H -1.8471617 -1.4388962 -0.21187124
