16

C 0.8098994 -1.1491319 1.2125642
C 0.16156474 -1.0418304 -0.11870244
N -1.9611902 -0.4517713 0.41637346
C -1.5545055 0.53819495 -0.32289812
O -1.8848125 1.6203864 -0.7252678
C 0.116650425 0.10239759 -0.91314256
C 0.9813015 1.3176423 -0.6597072
H 0.86487633 -0.1850211 1.721694
H 1.8382419 -1.5092648 1.060415
H 0.28636596 -1.8679008 1.845202
H -0.24405044 -1.9615569 -0.5293714
H -2.8959773 -0.24117997 0.7806232
H -0.096694544 -0.08672841 -1.9664619
H 1.0423075 1.5667331 0.40456352
H 0.5367938 2.1772215 -1.1681391
H 1.9992288 1.1718104 -1.037745
