16

N -2.1739907 -1.0618429 -0.522606
C -1.156531 -0.76340824 0.19001009
C 0.19530417 -1.392317 -0.1153628
C 1.2271944 -0.3151157 -0.5411751
C 1.0511144 0.9527744 0.29249907
C -0.11118749 1.7015784 0.053552784
O -1.1127819 0.16652744 1.1533287
H -2.9744272 -0.5277273 -0.1750633
H 0.5546949 -1.8878789 0.7950524
H 0.07429262 -2.1445909 -0.896929
H 1.0847735 -0.084318064 -1.6041738
H 2.2427216 -0.7060163 -0.43059355
H 0.29889935 0.5165685 1.2038985
H 1.9060993 1.4549685 0.7417681
H -0.80455023 1.4742223 -0.75364614
H -0.301626 2.6165757 0.6094402
