16

C -0.5621536 1.5227195 0.020936696
C 0.34431338 0.35026586 0.10787967
C 1.6600804 0.52684355 0.77373576
N -0.614554 -1.8909466 0.33631048
C -1.2822464 -1.3969525 -0.84382796
C 0.12392122 -0.89578235 -0.5931419
O 1.169763 -1.1828108 -1.2723305
H -0.2994935 2.072077 -0.8961003
H -0.42683226 2.2120624 0.8600521
H -1.6126775 1.2349458 -0.07853109
H 1.5088154 0.9602275 1.7712207
H 2.2835743 1.2373991 0.21513626
H 2.1947753 -0.42331553 0.8147493
H -0.98718035 -1.4620132 1.1831334
H -1.3444169 -2.1135602 -1.6574938
H -2.1556888 -0.75115955 -0.7417286
