16

C -0.6567174 -0.17356877 -1.5402106
C -0.8106424 0.3234505 -0.22399408
O -1.4342835 -1.3185833 0.4341991
C 0.35590667 0.544554 0.729371
C 1.4498721 -0.526914 0.66077495
C 0.9127201 1.8776778 0.43157274
N 1.3521222 2.9211664 0.19445103
H 0.3459775 -0.3712019 -1.910651
H -1.3772497 0.1538226 -2.285571
H -1.1697738 -1.2710239 -0.7684016
H -1.6844298 0.9315169 0.008139645
H -2.3974223 -1.3023521 0.5681834
H -0.03978493 0.5811279 1.7497351
H 2.226491 -0.3125208 1.3997416
H 1.9206811 -0.55588377 -0.3253212
H 1.0065329 -1.5012674 0.8779808
