16

C -1.7964909 0.83682454 0.46873903
C -1.143888 -0.023476083 -0.59897476
N -0.19665074 0.68246084 -1.4712173
C 0.9139348 0.02930621 -1.01501
O 2.0965753 0.1696522 -1.2218366
C 0.05672732 -0.8881735 -0.13162579
C 2.2751682 -0.6622147 1.8074125
H -1.034508 1.3683742 1.0496917
H -2.3808243 0.215186 1.1553906
H -2.4722235 1.5754719 0.023092091
H -1.8954746 -0.5815334 -1.1694818
H -0.28142673 1.5415245 -1.9974988
H 0.04350709 -1.9331782 -0.45063552
H 2.866758 0.09672463 1.2533226
H 2.6588225 -1.6054664 1.3560506
H 0.28999332 -0.82148284 0.9425813
