16

C -1.8439806 0.27522647 -0.60041803
C -0.3591351 0.20306075 -0.86682874
N 0.46856225 1.3513848 -0.4204055
C 0.36410832 0.004424181 1.4327924
C 0.6393533 -0.35726073 0.099779174
O 0.8204053 -1.8641533 0.9421121
C 1.6934438 0.51420045 -0.4776215
H -2.3114514 0.93109965 -1.3410503
H -2.3141034 -0.71159124 -0.6802403
H -2.058022 0.6984649 0.38568497
H -0.14909627 -0.091860905 -1.9056259
H -0.645065 -0.0072071827 1.8302555
H 1.1715639 0.29355782 2.0969064
H -0.0228139 -2.3338723 0.82912
H 2.0314622 0.25510073 -1.4884939
H 2.5147681 0.8394258 0.16403359
