16

O -0.10288739 -1.0839971 2.3161187
C 0.15071869 -1.3805599 0.96546555
C -0.8939146 -0.8789012 -0.07634718
C 0.18658546 0.039991036 -0.66476613
C -0.05275958 1.4965262 -1.2980957
N -0.7827593 2.066613 -0.28245842
C 1.1405423 -0.46222723 0.2746843
H -0.42841464 -0.17358848 2.3650718
H 0.38675863 -2.447518 0.93364155
H -1.6905332 -0.28232867 0.37074965
H -1.3169831 -1.6322396 -0.7473635
H -0.62569225 1.3480978 -2.2211678
H 0.9508742 1.8822241 -1.5518494
H -0.11250006 2.3873434 0.423393
H 0.99061203 -0.6286941 -1.2116857
H 2.2003531 -0.25074098 0.40460894
