16

C 0.28077507 0.21032202 1.7747008
C 0.90180224 0.031585738 0.41307312
C 0.13757712 0.40194625 -0.8835496
C -1.2498068 0.96117175 -0.87300324
C 0.29803395 -1.027036 -0.45766133
O -0.57734525 -1.9724468 -0.23971178
H -0.74947685 -0.1483109 1.8090382
H 1.3307544 -1.5316086 -1.2107345
H 0.6024889 -2.126126 -0.96227133
H -1.6976665 0.88970035 -1.8739302
H 0.28473085 1.2689553 2.0445385
H -1.9051919 0.39731014 -0.20613559
H 0.8416627 -0.33250925 2.528213
H 1.9634682 0.17823046 0.35962105
H -1.2603607 2.01617 -0.5598363
H 0.79855466 0.78264576 -1.6623505
