16

C -0.4958049 -0.89026076 -1.9616877
C -0.7732726 -0.4962714 1.1540232
C -0.6539536 0.38583994 -1.1990204
C -0.08286931 0.7493712 0.5171243
O 0.41268688 1.1004076 -1.1262492
C 1.3596989 0.84934163 1.0197285
H 1.9698182 -0.043932848 0.7646683
H 1.3331527 0.89441305 2.1318436
H 0.53504 -1.2263955 -2.0906234
H -1.8088815 -0.57654303 0.8248588
H -0.72804666 -0.3701263 2.2227724
H 1.8706261 1.7158368 0.641523
H -0.90430367 -0.6569389 -2.9587774
H -0.24547803 -1.4092059 0.9007999
H -0.65883213 1.6506512 0.7228917
H -1.1295803 -1.6761867 -1.5638751
