16

C -0.58984864 -1.0018035 -0.39971703
C -1.1160306 0.058606293 0.52623296
C -0.34056327 0.47840875 1.6151876
O 0.60534126 1.5749305 0.095183
C 0.3847243 -0.30169183 -1.3829306
C 1.3130132 0.68715215 -0.5917358
H 0.9613095 -1.0611488 -1.9228994
H 2.0139842 0.08302858 0.028196836
H -2.025988 0.5854059 0.30434257
H -1.4099786 -1.4972786 -0.93608505
H -1.3550102 -0.4895878 1.8028322
H 1.9540478 1.1587671 -1.3668866
H -0.683998 1.3003187 2.249756
H 0.5206904 -0.08827518 1.8962443
H -0.032784596 -1.7567346 0.17517343
H -0.1989088 0.26990196 -2.0928953
