16

C 0.7790903 -0.34936124 2.240194
C 0.124138206 -0.25507814 -0.71771383
O -0.6400461 0.27946967 1.5680593
C 0.4336902 0.5731578 0.48606038
C 0.222996 0.32380596 -2.0862474
C -1.1282719 -0.020449324 -1.5500286
H 0.64601517 -0.2904735 -2.8757796
H 0.41473117 -1.317848 -0.6317107
H 1.3583432 -1.1292672 1.7535456
H -1.7870611 0.80039954 -1.2754867
H 0.30091548 1.638691 0.29289147
H 0.4913114 1.3818669 -2.1516645
H 0.22114931 -0.77894473 3.0762784
H 1.4277565 0.4421123 2.6188986
H -1.6370095 -0.881901 -1.9771079
H -1.2277483 -0.41618 1.2298119
