16

O 1.1233207 0.36053362 -1.9946036
C 1.157527 -0.76115686 -1.2500048
C -0.58296514 0.63162315 1.2630411
C -0.5548232 -0.9036481 -0.38968617
C -1.4322566 0.2543033 0.048246793
C 0.71801955 0.06686801 0.7206286
H -2.4928548 0.044403736 0.255611
H 2.0582993 -0.78032213 -0.63314766
H -0.5340487 1.6945359 1.5038435
H -0.9058612 0.090433665 2.1682262
H -0.86207616 -1.272473 -1.380695
H -0.6426814 -1.7662892 0.310626
H 1.2486563 -0.6522662 1.3585006
H 1.6778611 1.0837772 -1.6524668
H -1.3805246 1.0506955 -0.71186066
H 1.4044077 0.8589813 0.38374084
