15

C -1.1549594 0.75057125 0.7471168
C 0.73826134 0.48259822 -0.6221565
C 0.20683578 -0.7599867 -0.2778442
C -0.017949207 1.41703 0.1507458
N 0.103348196 2.5812392 0.7637956
C 0.71667856 -2.1081922 -0.67090243
N -0.8772789 -0.64309126 0.55041337
H -2.1236153 1.0202194 0.28229263
H -0.06614509 -2.7440312 -1.0701257
H 1.6828321 0.60877764 -1.1303792
H 0.5313601 3.3899465 0.33073875
H -1.5293064 -1.3682631 0.70190346
H -0.86558396 2.0075328 1.5040886
H 1.493214 -2.0049253 -1.446415
H 1.1623083 -2.6294248 0.18672787
