15

C -1.1852604 0.398748 1.4735571
N -0.32020617 -0.5815782 1.516337
C -1.0067745 0.65020907 -1.2918583
C -0.90206265 1.4713354 0.5132484
C 1.5797285 -1.2933072 0.19808026
C 0.2298017 0.84694004 -0.110996366
N 0.5973368 -0.30944595 0.5628801
H 2.3875012 -0.7944926 -0.33539215
H -2.0369303 0.49031112 -1.0383228
H -1.9639664 0.41224343 2.230348
H 1.1504626 -2.0662656 -0.4505721
H -0.9080727 1.4604682 -2.019519
H 1.0170052 1.3736136 -0.66847086
H 1.9715607 -1.7606593 1.1033816
H -0.61012363 -0.29812 -1.682701
