15

C 0.68906015 -0.23388068 1.0903382
C -1.6980458 -0.3735731 0.11973699
C 0.24974559 1.0869629 -1.5863911
O 1.6813008 0.2757958 0.12189943
C 1.0175753 1.6459707 -0.71395564
C 0.60611165 -0.22098526 -1.0659356
C -0.2665368 -0.8202626 0.05974774
H -2.2809489 -0.76323175 -0.7082061
H -0.20907506 -1.8952519 0.03165825
H 0.31053162 0.6042521 1.7082311
H -1.7839427 0.7240411 0.11548866
H 1.188435 -0.95531434 1.7481558
H -2.1779263 -0.73084706 1.0602872
H 1.4808362 2.5570772 -0.30651897
H 1.1928802 -0.9007527 -1.6745365
