16

C 0.042379603 0.07238552 -1.1700578
C 0.28384495 -0.10605581 0.30075523
C 0.7016698 -1.5402058 0.62104374
C 0.087426275 2.062802 -1.5147237
C -0.93740296 0.2950619 1.1140213
O 0.68511134 2.5740898 -0.6403568
H -1.8125937 -0.33331463 0.83827525
H -0.89794654 -0.41201454 -1.4978402
H 0.85362387 -0.25977722 -1.8148112
H 1.1127526 0.5546663 0.57172465
H 1.6086301 -1.8331677 0.0678571
H -0.08417123 -2.24231 0.33600742
H -1.2000887 1.3378117 0.9552416
H -0.7472693 0.16536333 2.1809247
H -0.596539 1.3274611 -2.0282204
H 0.9005728 -1.6627961 1.6801586
