15

C 0.006473068 0.852052 -0.69074667
N -0.2682724 -1.6479503 0.40516248
C -0.37097004 -0.7042575 1.2299249
C -0.45322764 0.6146035 0.6255444
C -0.5386199 -0.86718667 2.717233
C 0.85778195 0.2574326 -2.7917154
N 0.17523856 -0.055537343 -1.5833087
H -1.4507529 -0.35565197 3.046818
H -0.6210384 -1.9229116 2.9948144
H 1.1034997 1.3224823 -2.934348
H 0.28322 1.9184872 -0.87599266
H -1.0424604 1.3792176 1.1474693
H 0.23507938 -0.052963603 -3.655806
H 1.77241 -0.31928152 -2.8638287
H 0.31163907 -0.41853476 3.2287803
