15

C 1.4311968 0.7060191 1.0334201
C -0.5146909 -0.20498532 -0.49672413
C 2.20316 -0.24059801 0.81592005
O -0.44350353 -0.97044444 1.5007681
C -1.4007496 -0.21828866 0.7492246
C 0.5224995 -0.770293 0.4953393
C -0.30984247 1.0749325 -1.2518507
H -0.79644346 -1.0042177 -1.1662984
H -1.2260736 1.3437648 -1.8090262
H -2.3575075 -0.7456752 0.6603249
H -0.054140992 1.9123033 -0.5870872
H 3.0197248 -0.93038946 0.65228075
H 0.497668 0.9833584 -1.983208
H 0.98711026 -1.7127869 0.19608189
H -1.5584073 0.7773003 1.1908352
