15

C -0.46076035 0.4450481 -0.52535564
C 0.47850966 0.07726599 0.5734342
C -1.1074067 -0.7645792 -1.2246726
O -0.22028518 0.6456186 1.5586534
C 1.7278521 -0.50762504 0.676039
C -1.2431414 1.0686677 0.61667967
C 2.6576762 -1.2135743 1.2471578
H -1.3543746 2.1626513 0.5948781
H 3.6948044 -0.8738347 1.1217692
H -0.10716818 1.1569766 -1.2665328
H -0.35258108 -1.2843941 -1.8425652
H -1.921613 -0.47340518 -1.8482997
H -1.4545904 -1.5000688 -0.4858509
H -2.211158 0.60441947 0.85323495
H 1.8742373 0.45683354 -0.048569575
