15

C -0.49220967 -0.13028367 1.4067951
N -1.1149557 -0.5207838 -0.5805368
C -1.9141897 -0.22779314 -1.7874619
C 0.63694316 0.17493565 0.64501286
C 2.0118322 0.516101 1.1245251
C 0.224291 -0.023956308 -0.69162303
N -1.5258507 -0.5400312 0.640669
H 2.025503 0.7322937 2.1924436
H -1.7085189 -0.9974865 -2.525785
H 2.4113448 1.3858625 0.5917667
H -0.6139132 -0.11671994 2.4679873
H -2.9689834 -0.23251413 -1.492099
H -0.54148334 0.75330436 -1.4583646
H 0.8588839 -0.45852372 -1.4878906
H 2.711307 -0.31440488 0.9545608
