16

C -0.13856465 0.33219802 -0.43870082
C -1.9139882 -0.6722218 0.9685316
O -0.025606552 -1.8409859 -0.043155607
C -0.4160078 -0.74221367 0.58181095
C 0.75495285 1.4321398 -0.3594495
C 1.6778884 0.21634577 -0.81847996
H 0.1735239 -0.4874517 1.5041317
H 1.9884543 0.3560872 -1.876222
H 1.1764107 -0.8533574 -0.737422
H 0.66815156 2.2125247 -1.0905508
H 1.0248071 1.7872682 0.6366395
H -0.63733464 0.1530745 -1.38248
H -2.1055775 -1.4846392 1.6536455
H 2.5013254 0.1570462 -0.13982832
H -2.213196 0.2821529 1.4521008
H -2.5152385 -0.8479678 0.08942908
