15

C 0.636065 1.9319199 -1.4003024
C 0.85308236 -0.4298608 0.21774043
N 0.49570644 -0.636707 -1.1846501
C -1.4321523 0.78469384 -0.3137365
C 0.015528891 0.5553823 -0.52307916
C 0.28025824 -1.3894525 1.2295787
N 1.047942 2.0752387 -0.2965952
H -1.9242767 1.1431785 -1.238527
H -0.71040803 -1.7311777 0.92500275
H 1.2548232 -0.43752423 -1.8234909
H 1.8778367 -0.11710565 0.40755916
H -1.9196317 -0.14895102 -0.009735978
H 0.19650656 -0.89129704 2.2051787
H 0.92960423 -2.2417984 1.3378489
H -1.600885 1.5334612 0.46720788
