16

C 0.8549807 1.104274 -0.056893125
C -0.26480022 -1.5626967 1.5712341
C 0.3427332 -0.16772078 -0.31819868
C -0.8171113 -0.7707921 0.40123355
C 0.056999985 1.4810807 -1.6454294
O -1.0449615 0.7883283 -1.7271103
H 0.0045366003 2.5927746 -1.740407
H -1.4891462 0.018559108 0.7347835
H 0.39794686 1.6620779 0.7610601
H 0.94787997 1.1427197 -2.255103
H 1.90107 1.2862811 -0.21247566
H 0.39837626 -2.377814 1.2802616
H -1.3808874 -1.4331238 -0.26421627
H -1.0942147 -2.0027423 2.1433635
H 0.2938289 -0.9260705 2.2833166
H 0.8927686 -0.8351361 -0.9554195
