16

C -1.2775009 0.665071 -0.18421596
C -0.32668224 -0.4141815 -0.4659526
C -0.6654265 2.0389116 -0.5445586
C 0.98257154 -0.4344295 0.15627982
C 0.9870059 -1.9378477 0.7681611
O 1.347793 0.4695977 0.98298234
H 0.7811295 -2.7402298 0.06688651
H -1.3328037 2.8446639 -0.24438845
H 2.0073023 -2.0408769 1.1327338
H 1.6294258 -0.6848759 -0.7476975
H -0.5910379 -1.2184272 -1.1415955
H -2.2422018 0.52122515 -0.646175
H 0.28737494 -1.9906186 1.6169076
H -1.3819515 0.65529823 0.9121179
H -0.5053774 2.1218936 -1.6232424
H 0.3003792 2.1448255 -0.038242944
