16

C 0.32277238 0.3966341 -0.6489371
C 1.556817 1.122159 -0.7701012
O -0.6917919 1.9447467 -0.52567965
C -0.1815566 -1.8585038 0.40885818
C -0.018345794 -0.36665854 0.57019395
C -1.3843981 -0.99853414 0.68150693
H -1.8342857 -1.0403523 1.6727605
H -2.0852623 -0.8211119 -0.12525776
H 0.5218579 2.082762 -0.60341567
H 2.244501 1.063163 0.08493661
H 0.18690962 -2.4996223 1.208383
H -0.08176302 -2.2930548 -0.5756918
H 2.0387468 1.1472427 -1.745686
H 0.46872008 -0.037251968 1.4954033
H -0.89909726 2.1017778 0.42643467
H -0.16382456 0.05660436 -1.5537078
