16

O -1.262997 -1.4812165 -1.4868768
C 0.4329539 0.5143581 -1.155286
C 0.19389607 0.35515797 1.3212249
C -0.656811 -0.82563496 0.8350239
C 1.189724 0.5850064 0.174352
C -1.1134548 -0.5054279 -0.57852894
H -1.5425324 -0.9894458 1.4526736
H 0.6856382 0.14746428 2.2654908
H -0.43614239 1.2458574 1.4614557
H 1.9372865 -0.19725339 0.21012148
H -0.09048422 -1.747633 0.8049952
H 1.7075384 1.5462168 0.28038532
H -0.05630546 1.4378502 -1.4413445
H 1.0676748 0.17993078 -1.9723525
H -1.811912 0.3398382 -0.6112784
H -0.24407206 -0.605069 -1.5600555
