15

C 0.6301022 0.2535277 0.61065173
N 0.64246863 1.5387151 1.2015402
C -1.5119139 0.8935381 -0.51822466
C 1.5514268 -0.8045164 0.73131394
C -0.2767143 -1.2430395 -0.7882028
C 0.9722559 -1.7506015 -0.2889894
N -0.42177808 -0.023265647 -0.23933104
H -2.0347786 0.5775658 -1.414261
H 1.5714579 1.6765907 1.5781599
H 1.8547251 -1.0481015 -0.6597841
H -1.098281 1.8884038 -0.6444375
H -2.212433 0.89997065 0.32639307
H 1.310992 -2.7659552 -0.42410707
H 0.014274586 1.565398 1.9993423
H -0.9918039 -1.6582302 -1.470064
