15

C 0.9748375 0.1091956 0.9330777
C 0.63710976 0.37534842 -0.45869341
C -1.4863343 -0.15480989 -1.8577261
C -0.5922621 -0.14003804 -0.6501986
N 2.2824974 0.1891832 1.4489939
C -0.1041548 -0.6525853 1.5916034
N -1.0233814 -0.69472593 0.55403227
H -1.9495256 -1.0671287 0.6977294
H 1.2569528 0.85030997 -1.2089942
H 2.6622653 1.1240003 1.4210905
H 2.3064988 -0.15992998 2.4022567
H -1.7520683 -1.1740655 -2.1359372
H -0.9528412 0.29392067 -2.7062726
H 0.14885648 0.70031804 1.6781254
H -2.408451 0.40100697 -1.7090875
