16

C -0.6242657 0.49492463 1.2729068
C -0.029675571 -1.3878826 -0.4892169
C -0.409229 1.7663684 -0.99009377
C 0.23705046 -0.3514087 0.40071452
C 0.25836658 1.1356798 0.19594176
O 1.4094896 -2.3886304 0.07102715
H 0.256742 1.7876723 -1.856829
H -0.83769685 -2.1097832 -0.32707784
H 0.28778324 -1.3394904 -1.5299468
H 1.3126663 -1.3684403 0.6590711
H -1.291382 1.18547 -1.2943457
H -0.7367534 2.7820246 -0.7811174
H -1.7036427 0.535413 1.0925767
H 1.0938749 -3.0804636 0.70500374
H 1.1416588 1.6806482 0.5462181
H -0.36498708 0.657898 2.3251677
