16

C 1.1796097 0.7244935 1.0878108
C 0.33842075 -1.1271096 -0.48455063
C -0.46257037 -0.27697352 -1.4673637
C 0.06709032 -0.2694033 0.7699037
C -1.3113189 0.3243148 -0.34264013
O -1.533559 1.6254307 -0.14641641
H -0.108196504 -2.125311 -0.37061983
H -1.0129771 -0.7782652 -2.259584
H 0.13163546 0.54001534 -1.9004353
H 2.0768855 0.16603169 1.4044172
H 0.9066395 1.4192781 1.885071
H -0.73870826 0.88806444 0.6591483
H -2.121306 -0.36636785 0.01075011
H -0.24902421 -0.8083639 1.6638888
H 1.3932421 -1.248496 -0.7208353
H 1.4441367 1.3126614 0.21145526
