16

C 1.6183997 0.44355318 -0.14103355
C -1.0441744 0.133321 0.59789294
C -0.2020929 -0.53470916 -0.49392122
C -0.63719606 -0.41984817 -1.8285526
C -0.5687972 -0.020090792 2.0159962
O 0.3934923 -0.6708545 2.370532
H -1.3406868 0.3638306 -2.1137526
H -2.0322173 -0.29078367 0.522735
H -1.2403176 0.47171193 2.7553263
H 0.26005483 -1.4860457 -0.17043075
H 2.3939652 0.2143185 -0.8585653
H 1.4585719 1.5236311 -0.09375168
H 1.8466725 0.027873132 0.8278134
H 0.59309894 0.20621222 -1.1986575
H -1.1688136 1.2093236 0.3753032
H -0.32995975 -1.1714432 -2.5669334
