16

C 0.12911852 -1.2321302 0.13385272
C 0.43946835 -0.11050109 -0.8784915
C -0.9088342 0.5212969 -0.5062197
C 1.7080158 0.69431233 -0.6414637
O -1.04698 0.37741673 1.9031272
C -1.2231928 -0.59717244 0.34903508
H 0.7485358 -1.2640301 1.0490782
H 0.46466863 -0.48858517 -1.9147372
H -2.1350217 -1.1206125 0.5425098
H 1.7584474 1.5851775 -1.3079702
H -0.82473826 1.0169059 0.902737
H 0.07274683 -2.2448902 -0.2912926
H -1.5819943 1.079437 -1.12487
H -1.9351151 0.59219086 2.2053192
H 1.7251155 1.0758383 0.38785887
H 2.6097593 0.11534594 -0.80847335
