15

N 1.2045128 -2.2548232 0.47471163
C -0.5425711 -1.2550982 1.528021
C -0.5645537 -0.64209515 0.30522698
N -0.031141544 -1.9626414 2.2759862
C -1.0682193 1.7227921 -0.5942134
C -0.1644772 0.75489974 0.15383892
C 0.18876953 1.2799207 -1.2413703
H -1.130075 -1.0823966 -0.49653956
H 0.4105448 1.1996527 0.970828
H 0.11755691 0.5730923 -2.066901
H 2.031061 -2.884718 0.25676247
H -1.1291271 2.7355704 -0.18541192
H -2.0065775 1.3199564 -0.9607071
H 1.0159053 1.9814856 -1.3132821
H 1.6683925 -1.4855977 0.8930505
