16

C -1.3751928 -0.10257452 -1.1575147
C 1.1560775 0.49425918 1.035797
C 0.7908609 -1.4771678 0.69960755
C 0.67842823 1.2155029 -0.21913408
C -0.7045254 0.6377007 -0.01342112
O -0.30907786 -0.2155506 1.1013654
H -0.03554567 -2.1303957 0.4062383
H 1.1431192 0.9004492 -1.174836
H -1.4086914 1.3654611 0.42122316
H -2.2490432 -0.6601501 -0.8141701
H 1.2156875 -1.8052651 1.6239457
H -1.6684213 0.60188985 -1.9291949
H 1.1697847 1.1333365 1.9332484
H -0.6670142 -0.81725067 -1.6211152
H 0.7247907 2.3220263 -0.18777536
H 1.5387634 -1.4622717 -0.10426398
