15

C -1.7811073 0.49953404 -0.066642486
N 1.9028599 -0.25028163 0.25655463
C -0.21019565 -0.84263134 -1.6744541
C 0.5609235 0.1202392 0.4775048
C -0.07652594 0.6297615 1.578038
C -1.4303268 0.89958906 1.2134966
N -0.37172252 0.05724722 -0.5512073
H 2.4967475 0.042066477 1.0265429
H 0.77088785 -0.69111127 -2.1476386
H 2.0246985 -1.2564126 0.15141936
H -1.0053775 -0.6152767 -2.3918576
H -0.32294366 -1.878537 -1.3499534
H -0.8182685 1.044841 -0.92347085
H -2.137592 1.3989226 1.879268
H 0.3979425 0.84204936 2.5224004
