16

C -1.7243313 0.18455522 -0.6854334
O 0.75401217 -0.6054019 -0.30872378
C 0.8826894 -1.8122143 0.43327862
C -0.6181741 0.5641255 0.22403923
C 0.3725984 1.6209232 -0.01454167
C 1.4232652 0.5976816 0.34219426
H 0.18120162 -2.5569 0.03328529
H 0.6730814 -1.628487 1.4929647
H -1.4292241 0.2764951 -1.719727
H -2.5423126 0.90091527 -0.4846332
H 1.8839796 -2.1916456 0.33710954
H 2.407188 0.7106492 -0.09466915
H -2.1018193 -0.8205854 -0.5054227
H -0.7835317 0.297804 1.27482
H 0.30661634 2.4310143 0.7133872
H 0.3147605 2.0310707 -1.037928
