16

C -0.36565286 0.49453372 -2.139462
C -1.1219298 0.13570818 -0.83507574
C -0.30371606 0.5390297 0.3084504
C 0.61844736 -0.6698401 2.1219993
C 0.8989093 -0.21359783 0.59601104
O 1.2913406 -1.1709186 -0.16581587
H 0.619979 0.023372792 -2.1069925
H -0.9205855 0.10330447 -2.996472
H -0.26436895 1.577672 -2.2561328
H -2.1324453 0.5521744 -0.82211214
H -1.1428027 -0.96666324 -0.79638714
H -0.57128596 1.3835461 0.9446065
H -0.19383982 -1.3997754 2.1328824
H 1.545594 -1.1706185 2.403067
H 0.4073211 0.1506109 2.8139806
H 1.6350354 0.6314614 0.79745305
