15

C -1.3697276 -0.8454646 1.6776626
C -0.46482188 -0.38425148 0.5777153
C -0.8377205 0.11893139 -0.661632
C 0.3670079 0.61921215 -1.2196711
N 0.8483557 1.5503551 -2.0362635
C 1.5046556 0.18093939 -0.42790315
N 0.875201 -0.32645646 0.7645403
H -1.516667 -0.049335107 2.4162407
H -2.347143 -1.123162 1.276175
H -0.95112294 -1.7134191 2.1991758
H -1.8583003 0.28424552 -0.9814992
H 1.9240266 1.3283324 -1.2436963
H 0.3964115 1.7469084 -2.9279666
H 2.081918 -0.59979033 -0.93740195
H 1.347927 -0.7870454 1.5245239
