15

C 0.7762988 -0.48791376 -1.4893887
C 0.24367696 0.52319247 -0.4988544
C -1.2558898 0.8476146 -0.44932514
O -1.255319 0.8102049 0.99228424
C 0.013496473 0.19287187 1.0044005
C -0.25895306 -1.5409721 1.0284756
C 0.25520992 -1.1831175 2.1184375
H 0.75981665 -0.06346376 -2.4996371
H 1.8132833 -0.7533111 -1.2561492
H 0.1794644 -1.4017546 -1.4734685
H 0.82849115 1.449071 -0.54725826
H -1.8879031 0.052860092 -0.8631754
H -1.5727941 1.8242732 -0.82628447
H 0.7096639 0.7330051 1.6597525
H 0.65145755 -1.0025606 3.1001906
