15

C 0.32395983 0.5289637 2.4784477
N 0.52682954 0.66744286 1.0897844
C 0.15031372 -0.54306716 0.48079127
C -0.1523679 -0.15465195 -0.87793237
C -0.6350489 -1.0230309 -1.9920466
C 0.2468892 1.1650891 -0.9312511
N 0.6321642 1.6762583 0.2784659
H -0.25575602 -0.82670826 1.7057037
H -0.7224052 0.67300487 2.74138
H 1.0064805 1.1039511 3.1046083
H 0.9157831 -1.3184835 0.5827487
H -0.5714643 -0.5005936 -2.9506564
H -1.6792166 -1.3182378 -1.8404382
H -0.046526905 -1.9448097 -2.0703912
H 0.26036584 1.814873 -1.7992134
