16

O -1.8023709 -0.3720974 1.7486362
C -1.709812 -0.7420516 0.46035063
C 0.48177314 -0.6922247 0.29111052
C 1.4381158 0.46322855 0.06565472
C 0.7131176 0.9212902 -1.1827232
C -0.69923806 0.49288768 -0.69319737
H -1.3126141 -0.95552623 2.3578153
H -1.3840145 -1.7877744 0.34464163
H 0.4400087 -1.0739751 1.3162678
H 0.67654425 -1.5123531 -0.40651017
H 2.4924262 0.18044057 -0.035935074
H 1.348681 1.2042644 0.86799365
H 0.77724403 1.9828529 -1.4507493
H 1.0230618 0.326183 -2.0497293
H -1.1211137 1.3137195 -0.11193992
H -1.3618094 0.25113577 -1.5216863
