16

C -0.65986145 -1.6666766 0.88005894
C 0.46596745 -0.6579321 0.8218262
C 1.388028 -0.6527117 -0.3863648
C 0.43784538 0.4658171 -0.15030903
C -0.6256278 0.96113086 -0.9475446
O -0.21246964 2.691501 -0.62387204
H -1.4971495 -1.3022555 1.4886808
H -1.0463707 -1.8684906 -0.12731156
H -0.32770982 -2.6193633 1.3092397
H 0.94328886 -0.4670288 1.7845275
H 2.4531667 -0.4885192 -0.2304208
H 1.167778 -1.3857893 -1.1636535
H 0.52993727 1.9876875 -0.07941756
H -0.53549683 1.0094715 -2.0309978
H -1.6560125 0.9423042 -0.5867656
H -0.82531345 3.0508554 0.042323798
