16

O -1.569456 0.9860074 -1.5660125
C -0.7638744 0.021183899 -1.1376566
C -1.056018 -0.11010495 0.78489965
C 0.36673486 0.06930715 1.2897547
C 1.2963036 -0.40633297 0.16743447
C 0.7403231 0.23874624 -1.0972902
H -1.5317574 0.6477008 -0.27348518
H -1.039205 -1.0228828 -1.3763088
H -1.7768685 0.54160523 1.3099592
H -1.4330485 -1.1319839 0.8612538
H 0.5376742 -0.47479594 2.2255874
H 0.5576403 1.1301838 1.4928565
H 2.3413548 -0.13366848 0.34602252
H 1.2523645 -1.5006742 0.08616257
H 0.90719324 1.3214495 -1.096784
H 1.170639 -0.17574069 -2.0163937
