16

C 0.88289136 -1.3429431 0.6969458
C 0.55761486 0.052762784 0.16645876
C 1.2097757 1.1714904 0.9347836
C -1.0892061 0.6956365 -0.40089515
O -1.1345628 -0.039830584 0.6698296
C -1.9165648 0.12153044 -1.5411266
H 0.3064677 -2.114248 0.18015608
H 0.6804386 -1.4133639 1.7689003
H 1.9495722 -1.531215 0.522552
H 0.8194154 0.052813545 -0.901683
H 0.7485288 1.2449765 1.9233032
H 1.0967777 2.1255882 0.41982025
H 2.2743242 0.9417989 1.0702463
H -2.725824 0.8317522 -1.7525855
H -1.3151579 0.06371021 -2.456818
H -2.3444912 -0.8604589 -1.2998877
