15

C -1.7672296 -0.8346936 -0.87110066
C -0.62072366 -0.23679838 -0.11841118
C -0.24378961 1.1102824 0.060498998
C 1.1283753 1.6903107 0.10705308
N 2.0206919 0.9039292 -0.47390097
C 0.30715582 0.102691 1.863832
N -0.01569229 -0.85025114 0.9361061
H -2.700483 -0.8010465 -0.29197675
H -1.9306922 -0.30526552 -1.8133522
H -1.5714359 -1.8867462 -1.1124948
H -0.9966755 1.8816612 -0.1312638
H 1.8067461 -0.0036004034 -0.89581764
H 2.9894838 1.1864417 -0.5017799
H 1.3115313 -0.13526529 2.2864013
H 0.28273728 -1.8216493 0.95620656
