16

C 2.1369386 -0.33414444 -0.65302604
C 0.84643173 0.46756917 -0.37480998
O 0.3552944 1.1132177 -1.4353781
C -0.23835641 -0.5262956 -0.020036014
C -1.0428154 -0.5576334 1.1574926
C -1.8124927 0.5267194 0.2721925
H 1.9702861 -1.0360585 -1.4779845
H 2.517956 -0.8738827 0.22374213
H 2.890494 0.3867943 -0.98133534
H 1.034506 1.082973 0.54390544
H -1.2118388 0.93334377 -0.627278
H -0.5100349 -1.1787776 -0.85065335
H -1.6446549 -1.4402292 1.3656735
H -0.6097102 -0.099801004 2.045812
H -1.9250405 1.4166238 0.89413065
H -2.7569635 0.11958125 -0.082447335
