16

C -0.31354752 -0.14634103 1.9326695
C 0.41848826 -0.60460675 0.68041456
C -0.413602 -0.9008013 -0.573551
C 0.3442945 0.016512126 -1.3626369
O -1.0343378 1.2387161 -1.5206605
C 1.1424437 0.4891446 -0.16768178
H -0.9292024 -0.9561585 2.3412004
H -0.97971016 0.6934978 1.7013175
H 0.38471362 0.17327645 2.716336
H 1.1189823 -1.4110073 0.936661
H -1.2782235 0.26418638 -0.85051465
H -0.8278354 -1.8556241 -0.89122176
H 0.6716453 0.007501131 -2.4013317
H -1.4723449 1.1204749 -2.3815622
H 2.22187 0.34713742 -0.28615496
H 0.946366 1.5240921 0.12671639
