15

N -2.6695352 0.07790309 0.22313014
C -0.37681293 -0.52273595 -0.60788965
C -1.2696867 -0.18672405 -1.586061
N -2.350507 0.14250197 -1.9600409
C 0.72747505 0.34020552 -0.17263785
C 2.1266608 -0.2451922 -0.08167389
C 1.3713573 0.05956384 1.1657863
H -3.4429295 0.2418522 0.8994469
H -2.259898 1.0159636 0.15924133
H -0.3499278 -1.5730976 -0.3234697
H 0.65684485 1.3801492 -0.4799161
H 2.2522051 -1.2851018 -0.36970705
H 2.9481144 0.4046107 -0.36808947
H 1.6681246 0.91869915 1.7594329
H 0.9685148 -0.76859766 1.7424481
