16

C -0.8278651 0.7929664 -0.3587119
C -0.8497179 -0.075050265 0.86632174
C -0.61072373 -1.435062 0.7767921
O 1.3156755 -0.5697833 0.7831784
C 1.5074302 -0.082485706 -0.48519757
C 0.6349832 1.1761955 -0.66694695
H -1.4584483 1.6774672 -0.22192898
H -1.2319875 0.21986848 -1.2036529
H -0.9777063 0.3522418 1.8569134
H -1.9318109 -1.0400985 0.7843781
H -0.49341518 -1.9000336 -0.19755614
H -0.52224845 -2.0360434 1.6741627
H 1.2166944 -0.80267406 -1.2914395
H 2.562188 0.1780308 -0.70443565
H 0.6951192 1.6196444 -1.6712662
H 0.9718326 1.9248164 0.05938934
