16

C 0.834991 1.4497489 -0.5406237
C 0.44292438 0.44779927 0.5455329
C -1.0766982 0.21832606 0.6283126
C -1.1126363 -1.0114657 -0.28813735
C 0.32726952 -1.3770858 0.050958514
O 1.2633096 -1.6571493 -0.8501575
H 1.9196134 1.5139949 -0.6817913
H 0.3918779 1.1795601 -1.5058107
H 0.47248146 2.4474397 -0.26743573
H 0.9489033 0.6404244 1.4952583
H -1.378173 -0.038613748 1.6483169
H -1.6725744 1.0754285 0.29791254
H -1.8524964 -1.7856709 -0.06551404
H -1.1713134 -0.7428498 -1.3465867
H 0.41334683 -1.841273 1.0515089
H 1.2491746 -0.51861376 -0.17174369
