15

C -0.7921547 1.3869503 0.86835
C -0.52208614 0.54145175 -0.36809707
C 0.58673996 1.0179636 -1.3248122
O 1.4046708 -0.13201973 -0.95741713
C 0.44072157 -0.611632 -0.14119346
C 0.42547017 -1.8173279 0.52620083
C 0.8508257 -2.7146819 1.3802149
H -1.351453 2.2910564 0.6063116
H -1.3767934 0.81457734 1.5944605
H 0.14553404 1.6837951 1.3503029
H -1.453468 0.26579946 -0.87046736
H 1.0939611 1.9463222 -1.0505927
H 0.35337165 0.9985446 -2.3922625
H -0.33860338 -1.924619 -0.41581044
H 0.5332637 -3.7461803 1.194812
