16

C -0.66804785 -1.4967026 1.7023106
C 0.5519744 -0.6949417 0.2902184
O -0.7159114 -1.5606048 -0.012975536
C 0.20331872 0.7114408 -0.032620646
C 1.1472843 1.5507786 -0.84223855
C -0.14258008 1.1108329 -1.4655585
H -1.7005188 -1.8872269 1.7771369
H -0.5913668 -0.5674423 2.265441
H 0.040881332 -2.237859 2.0505795
H 1.3050841 -1.0794513 -0.4101879
H -1.391227 -0.98665893 -0.4308942
H -0.35495198 1.2640706 0.7295675
H 1.258564 2.5977416 -0.5741254
H 2.0629344 1.0778911 -1.1876345
H -0.09244686 0.33763498 -2.2298226
H -0.9129907 1.8604972 -1.6291963
