15

C -1.6482977 -1.7134326 1.7098513
N -1.23404 -0.72569716 0.73518795
C -0.32784232 -1.0610689 -0.11198599
C 0.39935124 -0.13643585 -0.90461
C 0.57473457 1.2509298 -0.50413585
C 1.628871 2.1372943 -1.1200764
N -0.36860132 1.5897056 0.24183357
H -1.1893661 -2.7046194 1.5665841
H -2.7385862 -1.8164531 1.6864579
H -1.3787894 -1.3538495 2.7099252
H -0.03256451 -2.1135168 -0.243244
H 0.62823147 -0.38824213 -1.9409263
H 1.5838757 2.0722404 -2.211959
H 2.6144812 1.786927 -0.7976863
H 1.4885424 3.1762187 -0.8152162
