15

C -1.0245124 -0.19008671 1.430752
C -0.2126275 0.68425024 0.4903938
C 1.249027 0.29163855 0.24588865
O 1.1219342 0.2501123 -1.2163303
C -0.4800311 0.5038861 -1.0211664
C -0.901181 -0.8067071 -1.5229652
C 0.35187382 -1.137995 -1.7031157
H -0.6250809 -0.13401245 2.4496071
H -2.0698206 0.13348809 1.4584687
H -1.0048318 -1.2318988 1.0974478
H -0.29379237 1.7387487 0.77408576
H 1.5451252 -0.6882882 0.6307709
H 1.9952807 1.0432824 0.51078206
H -0.7437226 1.3973637 -1.59102
H 1.0923592 -1.8537818 -2.0335991
