16

C 0.37991726 0.23220885 -1.6666873
C -0.29797158 0.08260911 -0.42328012
C -0.27355823 -1.9625586 0.1823933
C 0.32381773 0.6559537 0.8243258
C -0.120329134 2.0901332 1.0218307
O -1.0500525 2.5974092 0.44417033
H 0.20224364 -0.9950111 -0.92464435
H 1.4297146 0.5027196 -1.6741033
H -0.1722524 0.1908519 -2.5965426
H -1.3838683 0.08354165 -0.44548184
H -1.122437 -1.9362156 0.87073183
H -0.4748865 -2.7008657 -0.60599256
H 0.64924777 -2.2167556 0.715101
H 0.03626009 0.10187113 1.7271984
H 1.4184672 0.61714214 0.76730895
H 0.45568752 2.6569662 1.7836714
