16

C 1.6195321 -1.0789785 0.56983626
C 0.36497173 -0.4100258 0.5173719
O 1.0778974 1.1097984 1.4122405
C -0.15725318 0.18521276 -0.72895265
C -1.4772743 -0.34654254 -1.243731
C -1.3842812 1.0441855 -0.6984266
H 2.1571925 -1.2003266 -0.3685053
H 1.7269741 -1.894021 1.2820804
H 1.8568097 0.1721431 1.1985322
H -0.3987776 -0.6504872 1.2587137
H 0.8238043 1.1078037 2.3504288
H 0.60298616 0.4193516 -1.469682
H -1.5784366 -0.4839554 -2.3160017
H -1.9856844 -1.1004953 -0.6483716
H -1.8185512 1.248295 0.27665877
H -1.4299098 1.8780425 -1.3921912
