15

C -0.21735205 1.6272427 -0.9606456
N 0.3478064 0.5345355 -0.17643277
C 1.7676163 0.025002126 -0.46935275
C 1.6794713 -1.2143137 0.14201418
C 0.36702216 -1.5454805 0.59519297
C -0.44462758 -0.46836436 0.39846772
N -1.7740432 -0.17995821 0.7600951
H -0.98440194 2.1444383 -0.37959874
H 0.6001852 2.3016276 -1.2198373
H -0.64889085 1.2274587 -1.8819845
H 1.2344341 0.9387951 0.45226544
H 2.5362213 -1.8728166 0.23839557
H 0.054788508 -2.47734 1.0556127
H -2.413866 -0.22222105 -0.027818207
H -2.1043637 -0.81860566 1.4736263
