15

C 1.0448374 -1.4799713 0.47819313
C 0.36436805 -0.1999352 0.8896352
N 0.9009394 1.0441673 0.36876097
C -0.4107846 0.65788156 -0.06460054
C -0.6829945 0.32898936 -1.5067196
C -1.5450877 1.8466616 0.42391255
N -1.9735649 0.85150975 0.92630535
H 0.3416327 -2.3187063 0.5072905
H 1.4651979 -1.4011422 -0.5276796
H 1.8668097 -1.699508 1.1679609
H -0.017293401 -0.19308122 1.9086236
H 0.8918478 1.8186035 1.0242912
H 0.17395428 -0.2013176 -1.9301534
H -1.5736452 -0.30013204 -1.5864354
H -0.84621704 1.2459805 -2.0793846
