15

C 0.13352382 -1.5500286 1.005486
N 0.37080285 -0.44336468 0.09853727
C 1.4433129 -0.31905657 -0.7834142
C 1.411787 0.84861916 -1.5275633
C 0.083575726 1.4106071 -1.0682284
C -0.46132275 0.5958181 -0.04801146
N -1.649078 0.68843603 0.6771815
H -0.9260715 -1.8207612 0.9817592
H 0.7331535 -2.4033067 0.68472916
H 0.41677773 -1.2837598 2.0296595
H 2.1951838 -1.100935 -0.7608788
H 0.19763662 0.829054 -2.1389823
H -0.27507406 2.4080505 -1.3046322
H -1.5298396 0.5935528 1.6797534
H -2.1443677 1.5470746 0.4746045
