16

C 1.8915116 0.35367686 -0.61205316
O 0.565957 -0.044548713 -0.8586501
C -0.38055155 1.1287783 -0.95079863
C -1.5716965 0.47089046 -0.33338505
C -0.6143013 0.048572805 0.7078718
C -0.3970777 -1.3552942 1.1708184
H 2.4635794 -0.5298958 -0.30500996
H 1.9274304 1.1379913 0.1568662
H 2.33012 0.7596645 -1.5319718
H -0.47691882 1.4735575 -1.9858384
H -2.0871367 -0.36963016 -0.82640254
H -2.2900949 1.2097385 0.03851901
H -0.28619143 0.8326819 1.3824835
H 0.62627566 -1.5145199 1.5248384
H -0.63033617 -2.0873494 0.39604145
H -1.0705692 -1.5143138 2.0266707
