16

C -1.9836944 0.30434865 -0.9994104
C -1.1170274 -0.4352002 0.033284735
C 0.31267905 -0.31128162 -0.34104577
C 1.1045523 0.80567306 -0.021023978
C 1.848242 -0.3681761 1.1921264
O 0.89765745 -1.1717267 1.5553695
H -1.7322019 1.3689713 -1.039836
H -1.8625766 -0.11099385 -2.0058014
H -3.0384772 0.2121822 -0.725657
H -1.2377117 0.0024321731 1.0284851
H -1.3936281 -1.4899836 0.096116185
H 0.7223803 -1.0534074 -1.0265619
H 0.61014956 1.6231282 0.50312203
H 1.9071797 1.095638 -0.69471115
H 2.3457866 0.25401944 1.9682307
H 2.6166909 -0.7256235 0.4773128
