16

C 0.27043062 -1.5257108 -0.900831
C 0.67669207 -0.63360894 0.24999775
C 1.1922766 0.7769309 -0.040053345
C 0.12360677 1.3267814 0.91643643
C -1.6437024 0.7155371 0.18940017
O -0.43956822 -0.1690059 1.0699667
H -0.28657818 -2.3986986 -0.54339063
H -0.34733278 -0.98280144 -1.6241556
H 1.167947 -1.8774414 -1.4212638
H 1.3219887 -1.1839135 0.9462447
H 2.2418935 0.9433429 0.22339788
H 1.0498558 1.0820242 -1.0881102
H 0.5240996 1.5807407 1.907307
H -1.4557735 1.2642906 -0.7337208
H -2.1768744 -0.22411746 -0.044940416
H -2.2189617 1.30565 0.89371526
