16

C 1.1366274 1.1886829 -0.7732826
C 0.92598844 0.1497823 0.30342394
C -0.4829994 -0.22834249 0.82949305
C -1.7430712 0.41658092 0.30163416
C 0.25730976 -1.1132549 -0.10919286
O -0.051252294 -1.5967246 -1.2853652
H 0.5017257 0.9781292 -1.6386923
H 2.1756315 1.1719911 -1.1174521
H 0.91326046 2.1966405 -0.4073447
H 1.6940864 0.09778274 1.0721718
H -0.48764616 -0.48718464 1.8862997
H -2.6245623 -0.12757558 0.65581983
H -1.827983 1.4577957 0.63084775
H -1.760265 0.3898431 -0.79158926
H 0.8205745 -2.1402855 0.662979
H 0.55257523 -2.3538606 -0.21974993
