16

C 0.29258326 -0.65590215 -1.3223689
C 0.10195486 -0.3490631 0.16520639
C 1.3765647 -0.6574897 0.9568215
C -0.35978174 1.078334 0.36167422
C -2.3175023 1.0115911 -0.15810938
O -2.7779157 0.024773529 0.2895724
H 0.59100866 -1.6980536 -1.4819682
H 1.0711169 -0.013107613 -1.7537646
H -0.6317245 -0.48705265 -1.8890464
H -0.6957201 -1.0024843 0.5506367
H 1.2350342 -0.45699993 2.024704
H 1.6652194 -1.7100648 0.8445218
H 2.2130527 -0.03869678 0.60812
H -0.46603253 1.369075 1.4138856
H 0.2890617 1.8058206 -0.151462
H -1.5869195 1.779321 -0.45842323
