15

C -1.8999958 0.67907387 0.38853544
N -0.8637507 0.014171872 -0.3641593
C 0.058128078 -0.9172371 0.10988649
C 1.1144964 -1.105797 -0.82665175
C 1.5066203 -0.23060833 0.8225405
C 0.75092185 -0.018043453 -1.7478824
N -0.3758022 0.59099036 -1.481049
H -2.4079835 -0.051086348 1.0246217
H -2.6201534 1.1057342 -0.31169546
H -1.4965596 1.4833483 1.0192964
H -0.28675964 -1.6196955 0.86363745
H 2.4022534 0.09951466 0.30224678
H 1.7951134 -0.95019007 1.5853033
H 1.0349284 0.6560358 1.2625453
H 1.2885431 0.26378906 -2.6471758
